*SPEF "ieee 1481-1999"
*DESIGN "design_mux"
*DATE "11:11:11 Fri 11 11, 1111"
*VENDOR "OpenRCX"
*PROGRAM "Parallel Extraction"
*VERSION "1.0"
*DESIGN_FLOW "NAME_SCOPE LOCAL" "PIN_CAP NONE"
*DIVIDER /
*DELIMITER :
*BUS_DELIMITER []
*T_UNIT 1 NS
*C_UNIT 1 PF
*R_UNIT 1 OHM
*L_UNIT 1 HENRY

*NAME_MAP
*1 CSB
*2 RST
*3 SCK
*4 SDI
*5 SDO
*8 irq
*9 mask_rev[0]
*10 mask_rev[1]
*11 mask_rev[2]
*12 mask_rev[3]
*13 mask_rev_in[0]
*14 mask_rev_in[1]
*15 mask_rev_in[2]
*16 mask_rev_in[3]
*17 mfgr_id[0]
*18 mfgr_id[10]
*19 mfgr_id[11]
*20 mfgr_id[1]
*21 mfgr_id[2]
*22 mfgr_id[3]
*23 mfgr_id[4]
*24 mfgr_id[5]
*25 mfgr_id[6]
*26 mfgr_id[7]
*27 mfgr_id[8]
*28 mfgr_id[9]
*29 out
*30 pll_bias_ena
*31 pll_bypass
*32 pll_cp_ena
*33 pll_trim[0]
*34 pll_trim[1]
*35 pll_trim[2]
*36 pll_trim[3]
*37 pll_vco_ena
*38 prod_id[0]
*39 prod_id[1]
*40 prod_id[2]
*41 prod_id[3]
*42 prod_id[4]
*43 prod_id[5]
*44 prod_id[6]
*45 prod_id[7]
*46 reg_ena
*47 sdo_enb
*48 trap
*49 xtal_ena
*50 _000_
*51 _001_
*52 _002_
*53 _003_
*54 _004_
*55 _005_
*56 _006_
*57 _007_
*58 _009_
*59 _011_
*60 _012_
*61 _013_
*62 _014_
*63 _015_
*64 _016_
*65 _017_
*66 _018_
*67 _019_
*68 _020_
*69 _021_
*70 _023_
*71 _025_
*72 _027_
*73 _029_
*74 _031_
*75 _033_
*76 _035_
*77 _037_
*78 _038_
*79 _039_
*80 _040_
*81 _041_
*82 _042_
*83 _043_
*84 _044_
*85 _045_
*86 _046_
*87 _047_
*88 _048_
*89 _049_
*90 _050_
*91 _051_
*92 _052_
*93 _053_
*94 _054_
*95 _055_
*96 _056_
*97 _057_
*98 _058_
*99 _059_
*100 _060_
*101 _061_
*102 _062_
*103 _063_
*104 _064_
*105 _065_
*106 _066_
*107 _067_
*108 _068_
*109 _069_
*110 _070_
*111 _071_
*112 _072_
*113 _073_
*114 _074_
*115 _075_
*116 _076_
*117 _077_
*118 _078_
*119 _079_
*120 _080_
*121 _081_
*122 _082_
*123 _083_
*124 _084_
*125 _085_
*126 _086_
*127 _087_
*128 _088_
*129 _089_
*130 _090_
*131 _091_
*132 _092_
*133 _093_
*134 _094_
*135 _095_
*136 _096_
*137 _097_
*138 _098_
*139 _099_
*140 _100_
*141 _101_
*142 _102_
*143 _103_
*144 _104_
*145 _105_
*146 _106_
*147 _107_
*148 _108_
*149 _109_
*150 _110_
*151 _111_
*152 _112_
*153 _113_
*154 _114_
*155 _115_
*156 _116_
*157 _117_
*158 _118_
*159 _119_
*160 _120_
*161 _121_
*162 _122_
*163 _123_
*164 _124_
*165 _125_
*166 _126_
*167 _127_
*168 _128_
*169 _129_
*170 _130_
*171 _131_
*172 _132_
*173 _133_
*174 _134_
*175 _135_
*176 _136_
*177 _137_
*178 _138_
*179 _139_
*180 _140_
*181 _141_
*182 _142_
*183 _143_
*184 _144_
*185 _145_
*186 _146_
*187 _147_
*188 _148_
*189 _149_
*190 _150_
*191 _151_
*192 _152_
*193 _153_
*194 _154_
*195 _155_
*196 _156_
*197 _157_
*198 _158_
*199 _159_
*200 _160_
*201 _161_
*202 _162_
*203 _163_
*204 _164_
*205 _165_
*206 _166_
*207 _167_
*208 _168_
*209 _169_
*210 _170_
*211 _171_
*212 _172_
*213 _173_
*214 _174_
*215 _175_
*216 _176_
*217 _177_
*218 _178_
*219 _179_
*220 _180_
*221 _181_
*222 _182_
*223 _183_
*224 _184_
*225 _185_
*226 _186_
*227 _187_
*228 _188_
*229 _189_
*230 _190_
*231 _191_
*232 _192_
*233 _193_
*234 _194_
*235 _195_
*236 _196_
*237 _197_
*238 _198_
*239 _199_
*240 _200_
*241 _201_
*242 _202_
*243 _203_
*244 _204_
*245 _205_
*246 _206_
*247 _207_
*248 _208_
*249 _209_
*250 _210_
*251 _211_
*252 _212_
*253 _213_
*254 _214_
*255 _215_
*256 _216_
*257 _217_
*258 _218_
*259 _219_
*260 _220_
*261 _221_
*262 _222_
*263 _223_
*264 _224_
*265 _225_
*266 _226_
*267 _227_
*268 _228_
*269 _229_
*270 _230_
*271 _231_
*272 _232_
*273 _233_
*274 _234_
*275 _235_
*276 _236_
*277 _237_
*278 _238_
*279 _239_
*280 _240_
*281 _241_
*282 _242_
*283 _243_
*284 _244_
*285 _245_
*286 _246_
*287 _247_
*288 _248_
*289 _249_
*290 clknet_0_SCK
*291 clknet_0__247_
*292 clknet_1_0__leaf__247_
*293 clknet_1_1__leaf__247_
*294 clknet_2_0__leaf_SCK
*295 clknet_2_1__leaf_SCK
*296 clknet_2_2__leaf_SCK
*297 clknet_2_3__leaf_SCK
*298 net1
*299 net10
*300 net2
*301 net3
*302 net4
*303 net5
*304 net6
*305 net7
*306 net8
*307 net9
*308 u_raven_spi\.U1\.addr\[0\]
*309 u_raven_spi\.U1\.addr\[1\]
*310 u_raven_spi\.U1\.addr\[2\]
*311 u_raven_spi\.U1\.addr\[3\]
*312 u_raven_spi\.U1\.addr\[4\]
*313 u_raven_spi\.U1\.addr\[5\]
*314 u_raven_spi\.U1\.addr\[6\]
*315 u_raven_spi\.U1\.addr\[7\]
*316 u_raven_spi\.U1\.count\[0\]
*317 u_raven_spi\.U1\.count\[1\]
*318 u_raven_spi\.U1\.count\[2\]
*319 u_raven_spi\.U1\.fixed\[0\]
*320 u_raven_spi\.U1\.fixed\[1\]
*321 u_raven_spi\.U1\.fixed\[2\]
*322 u_raven_spi\.U1\.ldata\[0\]
*323 u_raven_spi\.U1\.ldata\[1\]
*324 u_raven_spi\.U1\.ldata\[2\]
*325 u_raven_spi\.U1\.ldata\[3\]
*326 u_raven_spi\.U1\.ldata\[4\]
*327 u_raven_spi\.U1\.ldata\[5\]
*328 u_raven_spi\.U1\.ldata\[6\]
*329 u_raven_spi\.U1\.odata\[1\]
*330 u_raven_spi\.U1\.odata\[2\]
*331 u_raven_spi\.U1\.odata\[3\]
*332 u_raven_spi\.U1\.odata\[4\]
*333 u_raven_spi\.U1\.odata\[5\]
*334 u_raven_spi\.U1\.odata\[6\]
*335 u_raven_spi\.U1\.odata\[7\]
*336 u_raven_spi\.U1\.readmode
*337 u_raven_spi\.U1\.state\[0\]
*338 u_raven_spi\.U1\.state\[1\]
*339 u_raven_spi\.U1\.state\[2\]
*340 u_raven_spi\.U1\.writemode
*341 u_raven_spi\.U1\.wrstb
*342 u_raven_spi\.reset
*343 FILLER_0_0_109
*344 FILLER_0_0_113
*345 FILLER_0_0_125
*346 FILLER_0_0_137
*347 FILLER_0_0_141
*348 FILLER_0_0_15
*349 FILLER_0_0_153
*350 FILLER_0_0_165
*351 FILLER_0_0_169
*352 FILLER_0_0_181
*353 FILLER_0_0_193
*354 FILLER_0_0_197
*355 FILLER_0_0_209
*356 FILLER_0_0_221
*357 FILLER_0_0_225
*358 FILLER_0_0_237
*359 FILLER_0_0_249
*360 FILLER_0_0_253
*361 FILLER_0_0_265
*362 FILLER_0_0_27
*363 FILLER_0_0_277
*364 FILLER_0_0_281
*365 FILLER_0_0_29
*366 FILLER_0_0_293
*367 FILLER_0_0_3
*368 FILLER_0_0_305
*369 FILLER_0_0_309
*370 FILLER_0_0_321
*371 FILLER_0_0_333
*372 FILLER_0_0_337
*373 FILLER_0_0_349
*374 FILLER_0_0_361
*375 FILLER_0_0_365
*376 FILLER_0_0_377
*377 FILLER_0_0_389
*378 FILLER_0_0_393
*379 FILLER_0_0_405
*380 FILLER_0_0_41
*381 FILLER_0_0_53
*382 FILLER_0_0_57
*383 FILLER_0_0_69
*384 FILLER_0_0_81
*385 FILLER_0_0_85
*386 FILLER_0_0_97
*387 FILLER_0_10_109
*388 FILLER_0_10_121
*389 FILLER_0_10_133
*390 FILLER_0_10_139
*391 FILLER_0_10_141
*392 FILLER_0_10_15
*393 FILLER_0_10_153
*394 FILLER_0_10_165
*395 FILLER_0_10_177
*396 FILLER_0_10_189
*397 FILLER_0_10_195
*398 FILLER_0_10_197
*399 FILLER_0_10_209
*400 FILLER_0_10_221
*401 FILLER_0_10_233
*402 FILLER_0_10_245
*403 FILLER_0_10_251
*404 FILLER_0_10_253
*405 FILLER_0_10_265
*406 FILLER_0_10_27
*407 FILLER_0_10_277
*408 FILLER_0_10_289
*409 FILLER_0_10_29
*410 FILLER_0_10_3
*411 FILLER_0_10_301
*412 FILLER_0_10_307
*413 FILLER_0_10_309
*414 FILLER_0_10_321
*415 FILLER_0_10_333
*416 FILLER_0_10_345
*417 FILLER_0_10_357
*418 FILLER_0_10_363
*419 FILLER_0_10_365
*420 FILLER_0_10_377
*421 FILLER_0_10_389
*422 FILLER_0_10_401
*423 FILLER_0_10_41
*424 FILLER_0_10_53
*425 FILLER_0_10_65
*426 FILLER_0_10_77
*427 FILLER_0_10_83
*428 FILLER_0_10_85
*429 FILLER_0_10_97
*430 FILLER_0_11_105
*431 FILLER_0_11_111
*432 FILLER_0_11_113
*433 FILLER_0_11_125
*434 FILLER_0_11_137
*435 FILLER_0_11_149
*436 FILLER_0_11_15
*437 FILLER_0_11_161
*438 FILLER_0_11_167
*439 FILLER_0_11_169
*440 FILLER_0_11_181
*441 FILLER_0_11_193
*442 FILLER_0_11_205
*443 FILLER_0_11_217
*444 FILLER_0_11_223
*445 FILLER_0_11_225
*446 FILLER_0_11_237
*447 FILLER_0_11_249
*448 FILLER_0_11_261
*449 FILLER_0_11_27
*450 FILLER_0_11_273
*451 FILLER_0_11_279
*452 FILLER_0_11_281
*453 FILLER_0_11_293
*454 FILLER_0_11_3
*455 FILLER_0_11_305
*456 FILLER_0_11_317
*457 FILLER_0_11_329
*458 FILLER_0_11_335
*459 FILLER_0_11_337
*460 FILLER_0_11_349
*461 FILLER_0_11_361
*462 FILLER_0_11_373
*463 FILLER_0_11_385
*464 FILLER_0_11_39
*465 FILLER_0_11_391
*466 FILLER_0_11_393
*467 FILLER_0_11_405
*468 FILLER_0_11_51
*469 FILLER_0_11_55
*470 FILLER_0_11_57
*471 FILLER_0_11_69
*472 FILLER_0_11_81
*473 FILLER_0_11_93
*474 FILLER_0_12_109
*475 FILLER_0_12_121
*476 FILLER_0_12_133
*477 FILLER_0_12_139
*478 FILLER_0_12_141
*479 FILLER_0_12_15
*480 FILLER_0_12_153
*481 FILLER_0_12_165
*482 FILLER_0_12_177
*483 FILLER_0_12_189
*484 FILLER_0_12_195
*485 FILLER_0_12_197
*486 FILLER_0_12_209
*487 FILLER_0_12_221
*488 FILLER_0_12_233
*489 FILLER_0_12_245
*490 FILLER_0_12_251
*491 FILLER_0_12_253
*492 FILLER_0_12_265
*493 FILLER_0_12_27
*494 FILLER_0_12_277
*495 FILLER_0_12_289
*496 FILLER_0_12_29
*497 FILLER_0_12_3
*498 FILLER_0_12_301
*499 FILLER_0_12_307
*500 FILLER_0_12_309
*501 FILLER_0_12_321
*502 FILLER_0_12_333
*503 FILLER_0_12_345
*504 FILLER_0_12_357
*505 FILLER_0_12_363
*506 FILLER_0_12_365
*507 FILLER_0_12_377
*508 FILLER_0_12_389
*509 FILLER_0_12_397
*510 FILLER_0_12_403
*511 FILLER_0_12_41
*512 FILLER_0_12_53
*513 FILLER_0_12_65
*514 FILLER_0_12_77
*515 FILLER_0_12_83
*516 FILLER_0_12_85
*517 FILLER_0_12_97
*518 FILLER_0_13_105
*519 FILLER_0_13_11
*520 FILLER_0_13_111
*521 FILLER_0_13_113
*522 FILLER_0_13_125
*523 FILLER_0_13_137
*524 FILLER_0_13_149
*525 FILLER_0_13_161
*526 FILLER_0_13_167
*527 FILLER_0_13_169
*528 FILLER_0_13_181
*529 FILLER_0_13_193
*530 FILLER_0_13_205
*531 FILLER_0_13_217
*532 FILLER_0_13_223
*533 FILLER_0_13_225
*534 FILLER_0_13_23
*535 FILLER_0_13_237
*536 FILLER_0_13_249
*537 FILLER_0_13_261
*538 FILLER_0_13_273
*539 FILLER_0_13_279
*540 FILLER_0_13_281
*541 FILLER_0_13_293
*542 FILLER_0_13_3
*543 FILLER_0_13_305
*544 FILLER_0_13_317
*545 FILLER_0_13_329
*546 FILLER_0_13_335
*547 FILLER_0_13_337
*548 FILLER_0_13_349
*549 FILLER_0_13_35
*550 FILLER_0_13_361
*551 FILLER_0_13_373
*552 FILLER_0_13_385
*553 FILLER_0_13_391
*554 FILLER_0_13_393
*555 FILLER_0_13_405
*556 FILLER_0_13_47
*557 FILLER_0_13_55
*558 FILLER_0_13_57
*559 FILLER_0_13_69
*560 FILLER_0_13_7
*561 FILLER_0_13_81
*562 FILLER_0_13_93
*563 FILLER_0_14_109
*564 FILLER_0_14_121
*565 FILLER_0_14_133
*566 FILLER_0_14_139
*567 FILLER_0_14_141
*568 FILLER_0_14_15
*569 FILLER_0_14_153
*570 FILLER_0_14_165
*571 FILLER_0_14_177
*572 FILLER_0_14_189
*573 FILLER_0_14_195
*574 FILLER_0_14_197
*575 FILLER_0_14_209
*576 FILLER_0_14_221
*577 FILLER_0_14_233
*578 FILLER_0_14_245
*579 FILLER_0_14_251
*580 FILLER_0_14_253
*581 FILLER_0_14_265
*582 FILLER_0_14_27
*583 FILLER_0_14_277
*584 FILLER_0_14_289
*585 FILLER_0_14_29
*586 FILLER_0_14_3
*587 FILLER_0_14_301
*588 FILLER_0_14_307
*589 FILLER_0_14_309
*590 FILLER_0_14_321
*591 FILLER_0_14_333
*592 FILLER_0_14_345
*593 FILLER_0_14_357
*594 FILLER_0_14_363
*595 FILLER_0_14_365
*596 FILLER_0_14_377
*597 FILLER_0_14_389
*598 FILLER_0_14_401
*599 FILLER_0_14_41
*600 FILLER_0_14_53
*601 FILLER_0_14_65
*602 FILLER_0_14_77
*603 FILLER_0_14_83
*604 FILLER_0_14_85
*605 FILLER_0_14_97
*606 FILLER_0_15_105
*607 FILLER_0_15_111
*608 FILLER_0_15_113
*609 FILLER_0_15_125
*610 FILLER_0_15_137
*611 FILLER_0_15_149
*612 FILLER_0_15_15
*613 FILLER_0_15_161
*614 FILLER_0_15_167
*615 FILLER_0_15_169
*616 FILLER_0_15_181
*617 FILLER_0_15_193
*618 FILLER_0_15_205
*619 FILLER_0_15_217
*620 FILLER_0_15_223
*621 FILLER_0_15_225
*622 FILLER_0_15_237
*623 FILLER_0_15_249
*624 FILLER_0_15_261
*625 FILLER_0_15_27
*626 FILLER_0_15_273
*627 FILLER_0_15_279
*628 FILLER_0_15_281
*629 FILLER_0_15_289
*630 FILLER_0_15_3
*631 FILLER_0_15_312
*632 FILLER_0_15_323
*633 FILLER_0_15_335
*634 FILLER_0_15_337
*635 FILLER_0_15_349
*636 FILLER_0_15_361
*637 FILLER_0_15_373
*638 FILLER_0_15_385
*639 FILLER_0_15_39
*640 FILLER_0_15_391
*641 FILLER_0_15_393
*642 FILLER_0_15_405
*643 FILLER_0_15_51
*644 FILLER_0_15_55
*645 FILLER_0_15_57
*646 FILLER_0_15_69
*647 FILLER_0_15_81
*648 FILLER_0_15_93
*649 FILLER_0_16_109
*650 FILLER_0_16_121
*651 FILLER_0_16_133
*652 FILLER_0_16_139
*653 FILLER_0_16_141
*654 FILLER_0_16_15
*655 FILLER_0_16_153
*656 FILLER_0_16_165
*657 FILLER_0_16_177
*658 FILLER_0_16_189
*659 FILLER_0_16_195
*660 FILLER_0_16_197
*661 FILLER_0_16_209
*662 FILLER_0_16_221
*663 FILLER_0_16_233
*664 FILLER_0_16_245
*665 FILLER_0_16_251
*666 FILLER_0_16_253
*667 FILLER_0_16_265
*668 FILLER_0_16_27
*669 FILLER_0_16_277
*670 FILLER_0_16_285
*671 FILLER_0_16_29
*672 FILLER_0_16_3
*673 FILLER_0_16_307
*674 FILLER_0_16_315
*675 FILLER_0_16_368
*676 FILLER_0_16_380
*677 FILLER_0_16_392
*678 FILLER_0_16_404
*679 FILLER_0_16_41
*680 FILLER_0_16_53
*681 FILLER_0_16_65
*682 FILLER_0_16_77
*683 FILLER_0_16_83
*684 FILLER_0_16_85
*685 FILLER_0_16_97
*686 FILLER_0_17_105
*687 FILLER_0_17_111
*688 FILLER_0_17_113
*689 FILLER_0_17_125
*690 FILLER_0_17_137
*691 FILLER_0_17_149
*692 FILLER_0_17_15
*693 FILLER_0_17_161
*694 FILLER_0_17_167
*695 FILLER_0_17_169
*696 FILLER_0_17_181
*697 FILLER_0_17_193
*698 FILLER_0_17_205
*699 FILLER_0_17_217
*700 FILLER_0_17_223
*701 FILLER_0_17_225
*702 FILLER_0_17_237
*703 FILLER_0_17_249
*704 FILLER_0_17_261
*705 FILLER_0_17_27
*706 FILLER_0_17_273
*707 FILLER_0_17_279
*708 FILLER_0_17_281
*709 FILLER_0_17_293
*710 FILLER_0_17_297
*711 FILLER_0_17_3
*712 FILLER_0_17_319
*713 FILLER_0_17_334
*714 FILLER_0_17_346
*715 FILLER_0_17_372
*716 FILLER_0_17_386
*717 FILLER_0_17_39
*718 FILLER_0_17_393
*719 FILLER_0_17_405
*720 FILLER_0_17_51
*721 FILLER_0_17_55
*722 FILLER_0_17_57
*723 FILLER_0_17_69
*724 FILLER_0_17_81
*725 FILLER_0_17_93
*726 FILLER_0_18_109
*727 FILLER_0_18_121
*728 FILLER_0_18_133
*729 FILLER_0_18_139
*730 FILLER_0_18_141
*731 FILLER_0_18_15
*732 FILLER_0_18_153
*733 FILLER_0_18_165
*734 FILLER_0_18_177
*735 FILLER_0_18_189
*736 FILLER_0_18_195
*737 FILLER_0_18_197
*738 FILLER_0_18_209
*739 FILLER_0_18_221
*740 FILLER_0_18_233
*741 FILLER_0_18_245
*742 FILLER_0_18_251
*743 FILLER_0_18_253
*744 FILLER_0_18_265
*745 FILLER_0_18_27
*746 FILLER_0_18_277
*747 FILLER_0_18_289
*748 FILLER_0_18_29
*749 FILLER_0_18_3
*750 FILLER_0_18_304
*751 FILLER_0_18_309
*752 FILLER_0_18_342
*753 FILLER_0_18_350
*754 FILLER_0_18_360
*755 FILLER_0_18_392
*756 FILLER_0_18_404
*757 FILLER_0_18_41
*758 FILLER_0_18_53
*759 FILLER_0_18_65
*760 FILLER_0_18_77
*761 FILLER_0_18_83
*762 FILLER_0_18_85
*763 FILLER_0_18_97
*764 FILLER_0_19_105
*765 FILLER_0_19_111
*766 FILLER_0_19_113
*767 FILLER_0_19_125
*768 FILLER_0_19_137
*769 FILLER_0_19_149
*770 FILLER_0_19_15
*771 FILLER_0_19_161
*772 FILLER_0_19_167
*773 FILLER_0_19_169
*774 FILLER_0_19_181
*775 FILLER_0_19_193
*776 FILLER_0_19_205
*777 FILLER_0_19_217
*778 FILLER_0_19_223
*779 FILLER_0_19_225
*780 FILLER_0_19_237
*781 FILLER_0_19_241
*782 FILLER_0_19_262
*783 FILLER_0_19_27
*784 FILLER_0_19_274
*785 FILLER_0_19_281
*786 FILLER_0_19_293
*787 FILLER_0_19_3
*788 FILLER_0_19_300
*789 FILLER_0_19_311
*790 FILLER_0_19_323
*791 FILLER_0_19_335
*792 FILLER_0_19_367
*793 FILLER_0_19_377
*794 FILLER_0_19_39
*795 FILLER_0_19_402
*796 FILLER_0_19_406
*797 FILLER_0_19_51
*798 FILLER_0_19_55
*799 FILLER_0_19_57
*800 FILLER_0_19_69
*801 FILLER_0_19_81
*802 FILLER_0_19_93
*803 FILLER_0_1_11
*804 FILLER_0_1_111
*805 FILLER_0_1_113
*806 FILLER_0_1_125
*807 FILLER_0_1_137
*808 FILLER_0_1_149
*809 FILLER_0_1_153
*810 FILLER_0_1_157
*811 FILLER_0_1_165
*812 FILLER_0_1_169
*813 FILLER_0_1_17
*814 FILLER_0_1_181
*815 FILLER_0_1_192
*816 FILLER_0_1_204
*817 FILLER_0_1_216
*818 FILLER_0_1_225
*819 FILLER_0_1_237
*820 FILLER_0_1_249
*821 FILLER_0_1_261
*822 FILLER_0_1_273
*823 FILLER_0_1_279
*824 FILLER_0_1_281
*825 FILLER_0_1_29
*826 FILLER_0_1_293
*827 FILLER_0_1_3
*828 FILLER_0_1_305
*829 FILLER_0_1_311
*830 FILLER_0_1_323
*831 FILLER_0_1_335
*832 FILLER_0_1_337
*833 FILLER_0_1_349
*834 FILLER_0_1_361
*835 FILLER_0_1_373
*836 FILLER_0_1_385
*837 FILLER_0_1_391
*838 FILLER_0_1_397
*839 FILLER_0_1_405
*840 FILLER_0_1_41
*841 FILLER_0_1_53
*842 FILLER_0_1_57
*843 FILLER_0_1_69
*844 FILLER_0_1_7
*845 FILLER_0_1_81
*846 FILLER_0_1_87
*847 FILLER_0_1_99
*848 FILLER_0_20_109
*849 FILLER_0_20_113
*850 FILLER_0_20_125
*851 FILLER_0_20_137
*852 FILLER_0_20_141
*853 FILLER_0_20_15
*854 FILLER_0_20_153
*855 FILLER_0_20_165
*856 FILLER_0_20_169
*857 FILLER_0_20_181
*858 FILLER_0_20_193
*859 FILLER_0_20_197
*860 FILLER_0_20_209
*861 FILLER_0_20_221
*862 FILLER_0_20_225
*863 FILLER_0_20_237
*864 FILLER_0_20_249
*865 FILLER_0_20_253
*866 FILLER_0_20_259
*867 FILLER_0_20_27
*868 FILLER_0_20_271
*869 FILLER_0_20_281
*870 FILLER_0_20_285
*871 FILLER_0_20_29
*872 FILLER_0_20_3
*873 FILLER_0_20_360
*874 FILLER_0_20_386
*875 FILLER_0_20_393
*876 FILLER_0_20_397
*877 FILLER_0_20_401
*878 FILLER_0_20_41
*879 FILLER_0_20_53
*880 FILLER_0_20_57
*881 FILLER_0_20_69
*882 FILLER_0_20_81
*883 FILLER_0_20_85
*884 FILLER_0_20_97
*885 FILLER_0_21_105
*886 FILLER_0_21_111
*887 FILLER_0_21_113
*888 FILLER_0_21_125
*889 FILLER_0_21_15
*890 FILLER_0_21_213
*891 FILLER_0_21_225
*892 FILLER_0_21_237
*893 FILLER_0_21_249
*894 FILLER_0_21_264
*895 FILLER_0_21_267
*896 FILLER_0_21_27
*897 FILLER_0_21_295
*898 FILLER_0_21_3
*899 FILLER_0_21_301
*900 FILLER_0_21_305
*901 FILLER_0_21_309
*902 FILLER_0_21_313
*903 FILLER_0_21_319
*904 FILLER_0_21_323
*905 FILLER_0_21_372
*906 FILLER_0_21_382
*907 FILLER_0_21_39
*908 FILLER_0_21_51
*909 FILLER_0_21_55
*910 FILLER_0_21_57
*911 FILLER_0_21_69
*912 FILLER_0_21_81
*913 FILLER_0_21_93
*914 FILLER_0_22_109
*915 FILLER_0_22_121
*916 FILLER_0_22_133
*917 FILLER_0_22_15
*918 FILLER_0_22_213
*919 FILLER_0_22_225
*920 FILLER_0_22_237
*921 FILLER_0_22_239
*922 FILLER_0_22_247
*923 FILLER_0_22_27
*924 FILLER_0_22_276
*925 FILLER_0_22_282
*926 FILLER_0_22_289
*927 FILLER_0_22_29
*928 FILLER_0_22_293
*929 FILLER_0_22_3
*930 FILLER_0_22_302
*931 FILLER_0_22_308
*932 FILLER_0_22_320
*933 FILLER_0_22_334
*934 FILLER_0_22_346
*935 FILLER_0_22_351
*936 FILLER_0_22_363
*937 FILLER_0_22_377
*938 FILLER_0_22_389
*939 FILLER_0_22_395
*940 FILLER_0_22_402
*941 FILLER_0_22_41
*942 FILLER_0_22_53
*943 FILLER_0_22_65
*944 FILLER_0_22_77
*945 FILLER_0_22_83
*946 FILLER_0_22_85
*947 FILLER_0_22_97
*948 FILLER_0_23_105
*949 FILLER_0_23_111
*950 FILLER_0_23_113
*951 FILLER_0_23_125
*952 FILLER_0_23_15
*953 FILLER_0_23_213
*954 FILLER_0_23_225
*955 FILLER_0_23_237
*956 FILLER_0_23_262
*957 FILLER_0_23_27
*958 FILLER_0_23_275
*959 FILLER_0_23_294
*960 FILLER_0_23_3
*961 FILLER_0_23_316
*962 FILLER_0_23_329
*963 FILLER_0_23_341
*964 FILLER_0_23_353
*965 FILLER_0_23_379
*966 FILLER_0_23_39
*967 FILLER_0_23_401
*968 FILLER_0_23_51
*969 FILLER_0_23_55
*970 FILLER_0_23_57
*971 FILLER_0_23_69
*972 FILLER_0_23_81
*973 FILLER_0_23_93
*974 FILLER_0_24_109
*975 FILLER_0_24_121
*976 FILLER_0_24_133
*977 FILLER_0_24_15
*978 FILLER_0_24_213
*979 FILLER_0_24_225
*980 FILLER_0_24_237
*981 FILLER_0_24_239
*982 FILLER_0_24_245
*983 FILLER_0_24_251
*984 FILLER_0_24_262
*985 FILLER_0_24_27
*986 FILLER_0_24_275
*987 FILLER_0_24_29
*988 FILLER_0_24_295
*989 FILLER_0_24_299
*990 FILLER_0_24_3
*991 FILLER_0_24_319
*992 FILLER_0_24_323
*993 FILLER_0_24_344
*994 FILLER_0_24_399
*995 FILLER_0_24_405
*996 FILLER_0_24_41
*997 FILLER_0_24_53
*998 FILLER_0_24_65
*999 FILLER_0_24_77
*1000 FILLER_0_24_83
*1001 FILLER_0_24_85
*1002 FILLER_0_24_97
*1003 FILLER_0_25_105
*1004 FILLER_0_25_111
*1005 FILLER_0_25_113
*1006 FILLER_0_25_125
*1007 FILLER_0_25_15
*1008 FILLER_0_25_213
*1009 FILLER_0_25_225
*1010 FILLER_0_25_237
*1011 FILLER_0_25_252
*1012 FILLER_0_25_267
*1013 FILLER_0_25_27
*1014 FILLER_0_25_296
*1015 FILLER_0_25_3
*1016 FILLER_0_25_308
*1017 FILLER_0_25_320
*1018 FILLER_0_25_342
*1019 FILLER_0_25_367
*1020 FILLER_0_25_375
*1021 FILLER_0_25_385
*1022 FILLER_0_25_39
*1023 FILLER_0_25_51
*1024 FILLER_0_25_55
*1025 FILLER_0_25_57
*1026 FILLER_0_25_69
*1027 FILLER_0_25_81
*1028 FILLER_0_25_93
*1029 FILLER_0_26_109
*1030 FILLER_0_26_121
*1031 FILLER_0_26_133
*1032 FILLER_0_26_15
*1033 FILLER_0_26_213
*1034 FILLER_0_26_225
*1035 FILLER_0_26_237
*1036 FILLER_0_26_27
*1037 FILLER_0_26_271
*1038 FILLER_0_26_29
*1039 FILLER_0_26_290
*1040 FILLER_0_26_295
*1041 FILLER_0_26_299
*1042 FILLER_0_26_3
*1043 FILLER_0_26_309
*1044 FILLER_0_26_321
*1045 FILLER_0_26_349
*1046 FILLER_0_26_351
*1047 FILLER_0_26_363
*1048 FILLER_0_26_403
*1049 FILLER_0_26_41
*1050 FILLER_0_26_53
*1051 FILLER_0_26_65
*1052 FILLER_0_26_77
*1053 FILLER_0_26_83
*1054 FILLER_0_26_85
*1055 FILLER_0_26_97
*1056 FILLER_0_27_105
*1057 FILLER_0_27_111
*1058 FILLER_0_27_113
*1059 FILLER_0_27_125
*1060 FILLER_0_27_15
*1061 FILLER_0_27_213
*1062 FILLER_0_27_225
*1063 FILLER_0_27_237
*1064 FILLER_0_27_267
*1065 FILLER_0_27_27
*1066 FILLER_0_27_291
*1067 FILLER_0_27_3
*1068 FILLER_0_27_301
*1069 FILLER_0_27_307
*1070 FILLER_0_27_319
*1071 FILLER_0_27_323
*1072 FILLER_0_27_349
*1073 FILLER_0_27_357
*1074 FILLER_0_27_368
*1075 FILLER_0_27_376
*1076 FILLER_0_27_379
*1077 FILLER_0_27_39
*1078 FILLER_0_27_391
*1079 FILLER_0_27_403
*1080 FILLER_0_27_51
*1081 FILLER_0_27_55
*1082 FILLER_0_27_57
*1083 FILLER_0_27_69
*1084 FILLER_0_27_81
*1085 FILLER_0_27_93
*1086 FILLER_0_28_109
*1087 FILLER_0_28_121
*1088 FILLER_0_28_133
*1089 FILLER_0_28_15
*1090 FILLER_0_28_213
*1091 FILLER_0_28_225
*1092 FILLER_0_28_237
*1093 FILLER_0_28_239
*1094 FILLER_0_28_245
*1095 FILLER_0_28_249
*1096 FILLER_0_28_258
*1097 FILLER_0_28_266
*1098 FILLER_0_28_27
*1099 FILLER_0_28_29
*1100 FILLER_0_28_293
*1101 FILLER_0_28_3
*1102 FILLER_0_28_316
*1103 FILLER_0_28_344
*1104 FILLER_0_28_351
*1105 FILLER_0_28_363
*1106 FILLER_0_28_367
*1107 FILLER_0_28_379
*1108 FILLER_0_28_391
*1109 FILLER_0_28_403
*1110 FILLER_0_28_41
*1111 FILLER_0_28_53
*1112 FILLER_0_28_65
*1113 FILLER_0_28_77
*1114 FILLER_0_28_83
*1115 FILLER_0_28_85
*1116 FILLER_0_28_97
*1117 FILLER_0_29_105
*1118 FILLER_0_29_111
*1119 FILLER_0_29_113
*1120 FILLER_0_29_125
*1121 FILLER_0_29_15
*1122 FILLER_0_29_213
*1123 FILLER_0_29_225
*1124 FILLER_0_29_237
*1125 FILLER_0_29_249
*1126 FILLER_0_29_257
*1127 FILLER_0_29_267
*1128 FILLER_0_29_27
*1129 FILLER_0_29_3
*1130 FILLER_0_29_301
*1131 FILLER_0_29_305
*1132 FILLER_0_29_309
*1133 FILLER_0_29_321
*1134 FILLER_0_29_323
*1135 FILLER_0_29_327
*1136 FILLER_0_29_336
*1137 FILLER_0_29_349
*1138 FILLER_0_29_373
*1139 FILLER_0_29_377
*1140 FILLER_0_29_379
*1141 FILLER_0_29_384
*1142 FILLER_0_29_39
*1143 FILLER_0_29_396
*1144 FILLER_0_29_404
*1145 FILLER_0_29_51
*1146 FILLER_0_29_55
*1147 FILLER_0_29_57
*1148 FILLER_0_29_69
*1149 FILLER_0_29_81
*1150 FILLER_0_29_93
*1151 FILLER_0_2_109
*1152 FILLER_0_2_121
*1153 FILLER_0_2_133
*1154 FILLER_0_2_139
*1155 FILLER_0_2_141
*1156 FILLER_0_2_15
*1157 FILLER_0_2_153
*1158 FILLER_0_2_165
*1159 FILLER_0_2_177
*1160 FILLER_0_2_189
*1161 FILLER_0_2_195
*1162 FILLER_0_2_197
*1163 FILLER_0_2_209
*1164 FILLER_0_2_221
*1165 FILLER_0_2_233
*1166 FILLER_0_2_245
*1167 FILLER_0_2_251
*1168 FILLER_0_2_253
*1169 FILLER_0_2_265
*1170 FILLER_0_2_27
*1171 FILLER_0_2_277
*1172 FILLER_0_2_289
*1173 FILLER_0_2_29
*1174 FILLER_0_2_3
*1175 FILLER_0_2_301
*1176 FILLER_0_2_307
*1177 FILLER_0_2_309
*1178 FILLER_0_2_321
*1179 FILLER_0_2_333
*1180 FILLER_0_2_345
*1181 FILLER_0_2_357
*1182 FILLER_0_2_363
*1183 FILLER_0_2_365
*1184 FILLER_0_2_377
*1185 FILLER_0_2_389
*1186 FILLER_0_2_401
*1187 FILLER_0_2_41
*1188 FILLER_0_2_53
*1189 FILLER_0_2_65
*1190 FILLER_0_2_77
*1191 FILLER_0_2_83
*1192 FILLER_0_2_85
*1193 FILLER_0_2_97
*1194 FILLER_0_30_109
*1195 FILLER_0_30_121
*1196 FILLER_0_30_133
*1197 FILLER_0_30_15
*1198 FILLER_0_30_213
*1199 FILLER_0_30_225
*1200 FILLER_0_30_237
*1201 FILLER_0_30_239
*1202 FILLER_0_30_243
*1203 FILLER_0_30_268
*1204 FILLER_0_30_27
*1205 FILLER_0_30_272
*1206 FILLER_0_30_281
*1207 FILLER_0_30_29
*1208 FILLER_0_30_290
*1209 FILLER_0_30_3
*1210 FILLER_0_30_319
*1211 FILLER_0_30_327
*1212 FILLER_0_30_349
*1213 FILLER_0_30_351
*1214 FILLER_0_30_366
*1215 FILLER_0_30_391
*1216 FILLER_0_30_403
*1217 FILLER_0_30_41
*1218 FILLER_0_30_53
*1219 FILLER_0_30_65
*1220 FILLER_0_30_77
*1221 FILLER_0_30_83
*1222 FILLER_0_30_85
*1223 FILLER_0_30_97
*1224 FILLER_0_31_105
*1225 FILLER_0_31_111
*1226 FILLER_0_31_113
*1227 FILLER_0_31_125
*1228 FILLER_0_31_15
*1229 FILLER_0_31_213
*1230 FILLER_0_31_225
*1231 FILLER_0_31_237
*1232 FILLER_0_31_249
*1233 FILLER_0_31_253
*1234 FILLER_0_31_259
*1235 FILLER_0_31_265
*1236 FILLER_0_31_267
*1237 FILLER_0_31_27
*1238 FILLER_0_31_3
*1239 FILLER_0_31_323
*1240 FILLER_0_31_330
*1241 FILLER_0_31_334
*1242 FILLER_0_31_372
*1243 FILLER_0_31_39
*1244 FILLER_0_31_400
*1245 FILLER_0_31_406
*1246 FILLER_0_31_51
*1247 FILLER_0_31_55
*1248 FILLER_0_31_57
*1249 FILLER_0_31_69
*1250 FILLER_0_31_81
*1251 FILLER_0_31_93
*1252 FILLER_0_32_109
*1253 FILLER_0_32_113
*1254 FILLER_0_32_125
*1255 FILLER_0_32_137
*1256 FILLER_0_32_141
*1257 FILLER_0_32_15
*1258 FILLER_0_32_153
*1259 FILLER_0_32_165
*1260 FILLER_0_32_169
*1261 FILLER_0_32_181
*1262 FILLER_0_32_193
*1263 FILLER_0_32_197
*1264 FILLER_0_32_209
*1265 FILLER_0_32_221
*1266 FILLER_0_32_225
*1267 FILLER_0_32_237
*1268 FILLER_0_32_249
*1269 FILLER_0_32_253
*1270 FILLER_0_32_265
*1271 FILLER_0_32_27
*1272 FILLER_0_32_272
*1273 FILLER_0_32_281
*1274 FILLER_0_32_29
*1275 FILLER_0_32_292
*1276 FILLER_0_32_298
*1277 FILLER_0_32_3
*1278 FILLER_0_32_302
*1279 FILLER_0_32_320
*1280 FILLER_0_32_332
*1281 FILLER_0_32_355
*1282 FILLER_0_32_360
*1283 FILLER_0_32_365
*1284 FILLER_0_32_380
*1285 FILLER_0_32_388
*1286 FILLER_0_32_398
*1287 FILLER_0_32_406
*1288 FILLER_0_32_41
*1289 FILLER_0_32_53
*1290 FILLER_0_32_57
*1291 FILLER_0_32_69
*1292 FILLER_0_32_81
*1293 FILLER_0_32_85
*1294 FILLER_0_32_97
*1295 FILLER_0_33_105
*1296 FILLER_0_33_111
*1297 FILLER_0_33_113
*1298 FILLER_0_33_125
*1299 FILLER_0_33_137
*1300 FILLER_0_33_149
*1301 FILLER_0_33_15
*1302 FILLER_0_33_161
*1303 FILLER_0_33_167
*1304 FILLER_0_33_169
*1305 FILLER_0_33_181
*1306 FILLER_0_33_193
*1307 FILLER_0_33_205
*1308 FILLER_0_33_217
*1309 FILLER_0_33_223
*1310 FILLER_0_33_225
*1311 FILLER_0_33_237
*1312 FILLER_0_33_249
*1313 FILLER_0_33_261
*1314 FILLER_0_33_27
*1315 FILLER_0_33_273
*1316 FILLER_0_33_279
*1317 FILLER_0_33_281
*1318 FILLER_0_33_3
*1319 FILLER_0_33_334
*1320 FILLER_0_33_337
*1321 FILLER_0_33_348
*1322 FILLER_0_33_354
*1323 FILLER_0_33_389
*1324 FILLER_0_33_39
*1325 FILLER_0_33_393
*1326 FILLER_0_33_400
*1327 FILLER_0_33_406
*1328 FILLER_0_33_51
*1329 FILLER_0_33_55
*1330 FILLER_0_33_57
*1331 FILLER_0_33_69
*1332 FILLER_0_33_81
*1333 FILLER_0_33_93
*1334 FILLER_0_34_109
*1335 FILLER_0_34_121
*1336 FILLER_0_34_133
*1337 FILLER_0_34_139
*1338 FILLER_0_34_141
*1339 FILLER_0_34_15
*1340 FILLER_0_34_153
*1341 FILLER_0_34_165
*1342 FILLER_0_34_177
*1343 FILLER_0_34_189
*1344 FILLER_0_34_195
*1345 FILLER_0_34_197
*1346 FILLER_0_34_209
*1347 FILLER_0_34_221
*1348 FILLER_0_34_233
*1349 FILLER_0_34_245
*1350 FILLER_0_34_251
*1351 FILLER_0_34_253
*1352 FILLER_0_34_265
*1353 FILLER_0_34_27
*1354 FILLER_0_34_29
*1355 FILLER_0_34_293
*1356 FILLER_0_34_297
*1357 FILLER_0_34_3
*1358 FILLER_0_34_309
*1359 FILLER_0_34_332
*1360 FILLER_0_34_342
*1361 FILLER_0_34_349
*1362 FILLER_0_34_372
*1363 FILLER_0_34_41
*1364 FILLER_0_34_53
*1365 FILLER_0_34_65
*1366 FILLER_0_34_77
*1367 FILLER_0_34_83
*1368 FILLER_0_34_85
*1369 FILLER_0_34_97
*1370 FILLER_0_35_105
*1371 FILLER_0_35_111
*1372 FILLER_0_35_113
*1373 FILLER_0_35_125
*1374 FILLER_0_35_137
*1375 FILLER_0_35_149
*1376 FILLER_0_35_15
*1377 FILLER_0_35_161
*1378 FILLER_0_35_167
*1379 FILLER_0_35_169
*1380 FILLER_0_35_181
*1381 FILLER_0_35_193
*1382 FILLER_0_35_205
*1383 FILLER_0_35_217
*1384 FILLER_0_35_223
*1385 FILLER_0_35_225
*1386 FILLER_0_35_237
*1387 FILLER_0_35_249
*1388 FILLER_0_35_261
*1389 FILLER_0_35_27
*1390 FILLER_0_35_273
*1391 FILLER_0_35_279
*1392 FILLER_0_35_3
*1393 FILLER_0_35_315
*1394 FILLER_0_35_325
*1395 FILLER_0_35_329
*1396 FILLER_0_35_358
*1397 FILLER_0_35_368
*1398 FILLER_0_35_39
*1399 FILLER_0_35_396
*1400 FILLER_0_35_401
*1401 FILLER_0_35_51
*1402 FILLER_0_35_55
*1403 FILLER_0_35_57
*1404 FILLER_0_35_69
*1405 FILLER_0_35_81
*1406 FILLER_0_35_93
*1407 FILLER_0_36_109
*1408 FILLER_0_36_121
*1409 FILLER_0_36_133
*1410 FILLER_0_36_139
*1411 FILLER_0_36_141
*1412 FILLER_0_36_15
*1413 FILLER_0_36_153
*1414 FILLER_0_36_165
*1415 FILLER_0_36_177
*1416 FILLER_0_36_189
*1417 FILLER_0_36_195
*1418 FILLER_0_36_197
*1419 FILLER_0_36_209
*1420 FILLER_0_36_221
*1421 FILLER_0_36_233
*1422 FILLER_0_36_245
*1423 FILLER_0_36_251
*1424 FILLER_0_36_253
*1425 FILLER_0_36_265
*1426 FILLER_0_36_27
*1427 FILLER_0_36_277
*1428 FILLER_0_36_285
*1429 FILLER_0_36_29
*1430 FILLER_0_36_293
*1431 FILLER_0_36_299
*1432 FILLER_0_36_3
*1433 FILLER_0_36_306
*1434 FILLER_0_36_309
*1435 FILLER_0_36_324
*1436 FILLER_0_36_332
*1437 FILLER_0_36_343
*1438 FILLER_0_36_355
*1439 FILLER_0_36_363
*1440 FILLER_0_36_365
*1441 FILLER_0_36_41
*1442 FILLER_0_36_53
*1443 FILLER_0_36_65
*1444 FILLER_0_36_77
*1445 FILLER_0_36_83
*1446 FILLER_0_36_85
*1447 FILLER_0_36_97
*1448 FILLER_0_37_105
*1449 FILLER_0_37_111
*1450 FILLER_0_37_113
*1451 FILLER_0_37_125
*1452 FILLER_0_37_137
*1453 FILLER_0_37_149
*1454 FILLER_0_37_15
*1455 FILLER_0_37_161
*1456 FILLER_0_37_167
*1457 FILLER_0_37_169
*1458 FILLER_0_37_181
*1459 FILLER_0_37_193
*1460 FILLER_0_37_205
*1461 FILLER_0_37_217
*1462 FILLER_0_37_223
*1463 FILLER_0_37_225
*1464 FILLER_0_37_237
*1465 FILLER_0_37_249
*1466 FILLER_0_37_261
*1467 FILLER_0_37_27
*1468 FILLER_0_37_273
*1469 FILLER_0_37_279
*1470 FILLER_0_37_295
*1471 FILLER_0_37_3
*1472 FILLER_0_37_333
*1473 FILLER_0_37_348
*1474 FILLER_0_37_376
*1475 FILLER_0_37_389
*1476 FILLER_0_37_39
*1477 FILLER_0_37_393
*1478 FILLER_0_37_405
*1479 FILLER_0_37_51
*1480 FILLER_0_37_55
*1481 FILLER_0_37_57
*1482 FILLER_0_37_69
*1483 FILLER_0_37_81
*1484 FILLER_0_37_93
*1485 FILLER_0_38_109
*1486 FILLER_0_38_11
*1487 FILLER_0_38_121
*1488 FILLER_0_38_133
*1489 FILLER_0_38_139
*1490 FILLER_0_38_141
*1491 FILLER_0_38_153
*1492 FILLER_0_38_165
*1493 FILLER_0_38_177
*1494 FILLER_0_38_189
*1495 FILLER_0_38_195
*1496 FILLER_0_38_197
*1497 FILLER_0_38_209
*1498 FILLER_0_38_221
*1499 FILLER_0_38_23
*1500 FILLER_0_38_233
*1501 FILLER_0_38_245
*1502 FILLER_0_38_251
*1503 FILLER_0_38_253
*1504 FILLER_0_38_265
*1505 FILLER_0_38_27
*1506 FILLER_0_38_277
*1507 FILLER_0_38_29
*1508 FILLER_0_38_3
*1509 FILLER_0_38_301
*1510 FILLER_0_38_319
*1511 FILLER_0_38_344
*1512 FILLER_0_38_363
*1513 FILLER_0_38_365
*1514 FILLER_0_38_398
*1515 FILLER_0_38_406
*1516 FILLER_0_38_41
*1517 FILLER_0_38_53
*1518 FILLER_0_38_65
*1519 FILLER_0_38_7
*1520 FILLER_0_38_77
*1521 FILLER_0_38_83
*1522 FILLER_0_38_85
*1523 FILLER_0_38_97
*1524 FILLER_0_39_105
*1525 FILLER_0_39_111
*1526 FILLER_0_39_113
*1527 FILLER_0_39_125
*1528 FILLER_0_39_137
*1529 FILLER_0_39_149
*1530 FILLER_0_39_15
*1531 FILLER_0_39_161
*1532 FILLER_0_39_167
*1533 FILLER_0_39_169
*1534 FILLER_0_39_181
*1535 FILLER_0_39_193
*1536 FILLER_0_39_205
*1537 FILLER_0_39_217
*1538 FILLER_0_39_223
*1539 FILLER_0_39_225
*1540 FILLER_0_39_237
*1541 FILLER_0_39_249
*1542 FILLER_0_39_261
*1543 FILLER_0_39_27
*1544 FILLER_0_39_273
*1545 FILLER_0_39_279
*1546 FILLER_0_39_281
*1547 FILLER_0_39_289
*1548 FILLER_0_39_294
*1549 FILLER_0_39_3
*1550 FILLER_0_39_306
*1551 FILLER_0_39_318
*1552 FILLER_0_39_326
*1553 FILLER_0_39_344
*1554 FILLER_0_39_373
*1555 FILLER_0_39_385
*1556 FILLER_0_39_39
*1557 FILLER_0_39_391
*1558 FILLER_0_39_393
*1559 FILLER_0_39_405
*1560 FILLER_0_39_51
*1561 FILLER_0_39_55
*1562 FILLER_0_39_57
*1563 FILLER_0_39_69
*1564 FILLER_0_39_81
*1565 FILLER_0_39_93
*1566 FILLER_0_3_105
*1567 FILLER_0_3_111
*1568 FILLER_0_3_113
*1569 FILLER_0_3_125
*1570 FILLER_0_3_137
*1571 FILLER_0_3_149
*1572 FILLER_0_3_15
*1573 FILLER_0_3_161
*1574 FILLER_0_3_167
*1575 FILLER_0_3_169
*1576 FILLER_0_3_181
*1577 FILLER_0_3_193
*1578 FILLER_0_3_205
*1579 FILLER_0_3_217
*1580 FILLER_0_3_223
*1581 FILLER_0_3_225
*1582 FILLER_0_3_237
*1583 FILLER_0_3_249
*1584 FILLER_0_3_261
*1585 FILLER_0_3_27
*1586 FILLER_0_3_273
*1587 FILLER_0_3_279
*1588 FILLER_0_3_281
*1589 FILLER_0_3_293
*1590 FILLER_0_3_3
*1591 FILLER_0_3_305
*1592 FILLER_0_3_317
*1593 FILLER_0_3_329
*1594 FILLER_0_3_335
*1595 FILLER_0_3_337
*1596 FILLER_0_3_349
*1597 FILLER_0_3_361
*1598 FILLER_0_3_373
*1599 FILLER_0_3_385
*1600 FILLER_0_3_39
*1601 FILLER_0_3_391
*1602 FILLER_0_3_393
*1603 FILLER_0_3_405
*1604 FILLER_0_3_51
*1605 FILLER_0_3_55
*1606 FILLER_0_3_57
*1607 FILLER_0_3_69
*1608 FILLER_0_3_81
*1609 FILLER_0_3_93
*1610 FILLER_0_40_109
*1611 FILLER_0_40_121
*1612 FILLER_0_40_133
*1613 FILLER_0_40_139
*1614 FILLER_0_40_141
*1615 FILLER_0_40_15
*1616 FILLER_0_40_153
*1617 FILLER_0_40_165
*1618 FILLER_0_40_177
*1619 FILLER_0_40_189
*1620 FILLER_0_40_195
*1621 FILLER_0_40_197
*1622 FILLER_0_40_209
*1623 FILLER_0_40_221
*1624 FILLER_0_40_233
*1625 FILLER_0_40_245
*1626 FILLER_0_40_251
*1627 FILLER_0_40_253
*1628 FILLER_0_40_265
*1629 FILLER_0_40_27
*1630 FILLER_0_40_277
*1631 FILLER_0_40_289
*1632 FILLER_0_40_29
*1633 FILLER_0_40_3
*1634 FILLER_0_40_301
*1635 FILLER_0_40_307
*1636 FILLER_0_40_309
*1637 FILLER_0_40_321
*1638 FILLER_0_40_336
*1639 FILLER_0_40_348
*1640 FILLER_0_40_358
*1641 FILLER_0_40_365
*1642 FILLER_0_40_376
*1643 FILLER_0_40_388
*1644 FILLER_0_40_400
*1645 FILLER_0_40_406
*1646 FILLER_0_40_41
*1647 FILLER_0_40_53
*1648 FILLER_0_40_65
*1649 FILLER_0_40_77
*1650 FILLER_0_40_83
*1651 FILLER_0_40_85
*1652 FILLER_0_40_97
*1653 FILLER_0_41_105
*1654 FILLER_0_41_111
*1655 FILLER_0_41_113
*1656 FILLER_0_41_125
*1657 FILLER_0_41_137
*1658 FILLER_0_41_149
*1659 FILLER_0_41_15
*1660 FILLER_0_41_161
*1661 FILLER_0_41_167
*1662 FILLER_0_41_169
*1663 FILLER_0_41_181
*1664 FILLER_0_41_193
*1665 FILLER_0_41_205
*1666 FILLER_0_41_217
*1667 FILLER_0_41_223
*1668 FILLER_0_41_225
*1669 FILLER_0_41_237
*1670 FILLER_0_41_249
*1671 FILLER_0_41_261
*1672 FILLER_0_41_27
*1673 FILLER_0_41_273
*1674 FILLER_0_41_279
*1675 FILLER_0_41_281
*1676 FILLER_0_41_293
*1677 FILLER_0_41_3
*1678 FILLER_0_41_305
*1679 FILLER_0_41_309
*1680 FILLER_0_41_331
*1681 FILLER_0_41_335
*1682 FILLER_0_41_337
*1683 FILLER_0_41_349
*1684 FILLER_0_41_360
*1685 FILLER_0_41_39
*1686 FILLER_0_41_396
*1687 FILLER_0_41_402
*1688 FILLER_0_41_406
*1689 FILLER_0_41_51
*1690 FILLER_0_41_55
*1691 FILLER_0_41_57
*1692 FILLER_0_41_69
*1693 FILLER_0_41_81
*1694 FILLER_0_41_93
*1695 FILLER_0_42_109
*1696 FILLER_0_42_121
*1697 FILLER_0_42_133
*1698 FILLER_0_42_139
*1699 FILLER_0_42_141
*1700 FILLER_0_42_15
*1701 FILLER_0_42_153
*1702 FILLER_0_42_165
*1703 FILLER_0_42_177
*1704 FILLER_0_42_189
*1705 FILLER_0_42_195
*1706 FILLER_0_42_197
*1707 FILLER_0_42_209
*1708 FILLER_0_42_221
*1709 FILLER_0_42_233
*1710 FILLER_0_42_245
*1711 FILLER_0_42_251
*1712 FILLER_0_42_253
*1713 FILLER_0_42_265
*1714 FILLER_0_42_27
*1715 FILLER_0_42_277
*1716 FILLER_0_42_289
*1717 FILLER_0_42_29
*1718 FILLER_0_42_3
*1719 FILLER_0_42_301
*1720 FILLER_0_42_307
*1721 FILLER_0_42_330
*1722 FILLER_0_42_339
*1723 FILLER_0_42_355
*1724 FILLER_0_42_370
*1725 FILLER_0_42_375
*1726 FILLER_0_42_387
*1727 FILLER_0_42_399
*1728 FILLER_0_42_41
*1729 FILLER_0_42_53
*1730 FILLER_0_42_65
*1731 FILLER_0_42_77
*1732 FILLER_0_42_83
*1733 FILLER_0_42_85
*1734 FILLER_0_42_97
*1735 FILLER_0_43_105
*1736 FILLER_0_43_111
*1737 FILLER_0_43_113
*1738 FILLER_0_43_125
*1739 FILLER_0_43_137
*1740 FILLER_0_43_149
*1741 FILLER_0_43_15
*1742 FILLER_0_43_161
*1743 FILLER_0_43_167
*1744 FILLER_0_43_169
*1745 FILLER_0_43_181
*1746 FILLER_0_43_193
*1747 FILLER_0_43_205
*1748 FILLER_0_43_217
*1749 FILLER_0_43_225
*1750 FILLER_0_43_237
*1751 FILLER_0_43_249
*1752 FILLER_0_43_261
*1753 FILLER_0_43_27
*1754 FILLER_0_43_273
*1755 FILLER_0_43_279
*1756 FILLER_0_43_281
*1757 FILLER_0_43_293
*1758 FILLER_0_43_3
*1759 FILLER_0_43_305
*1760 FILLER_0_43_313
*1761 FILLER_0_43_319
*1762 FILLER_0_43_335
*1763 FILLER_0_43_349
*1764 FILLER_0_43_359
*1765 FILLER_0_43_384
*1766 FILLER_0_43_39
*1767 FILLER_0_43_393
*1768 FILLER_0_43_405
*1769 FILLER_0_43_51
*1770 FILLER_0_43_55
*1771 FILLER_0_43_57
*1772 FILLER_0_43_69
*1773 FILLER_0_43_81
*1774 FILLER_0_43_93
*1775 FILLER_0_44_109
*1776 FILLER_0_44_121
*1777 FILLER_0_44_133
*1778 FILLER_0_44_139
*1779 FILLER_0_44_141
*1780 FILLER_0_44_15
*1781 FILLER_0_44_153
*1782 FILLER_0_44_165
*1783 FILLER_0_44_177
*1784 FILLER_0_44_189
*1785 FILLER_0_44_195
*1786 FILLER_0_44_197
*1787 FILLER_0_44_209
*1788 FILLER_0_44_221
*1789 FILLER_0_44_233
*1790 FILLER_0_44_245
*1791 FILLER_0_44_251
*1792 FILLER_0_44_253
*1793 FILLER_0_44_265
*1794 FILLER_0_44_27
*1795 FILLER_0_44_277
*1796 FILLER_0_44_289
*1797 FILLER_0_44_29
*1798 FILLER_0_44_3
*1799 FILLER_0_44_301
*1800 FILLER_0_44_307
*1801 FILLER_0_44_309
*1802 FILLER_0_44_321
*1803 FILLER_0_44_339
*1804 FILLER_0_44_363
*1805 FILLER_0_44_365
*1806 FILLER_0_44_391
*1807 FILLER_0_44_403
*1808 FILLER_0_44_41
*1809 FILLER_0_44_53
*1810 FILLER_0_44_65
*1811 FILLER_0_44_77
*1812 FILLER_0_44_83
*1813 FILLER_0_44_85
*1814 FILLER_0_44_97
*1815 FILLER_0_45_105
*1816 FILLER_0_45_111
*1817 FILLER_0_45_113
*1818 FILLER_0_45_125
*1819 FILLER_0_45_137
*1820 FILLER_0_45_149
*1821 FILLER_0_45_15
*1822 FILLER_0_45_161
*1823 FILLER_0_45_167
*1824 FILLER_0_45_169
*1825 FILLER_0_45_181
*1826 FILLER_0_45_193
*1827 FILLER_0_45_205
*1828 FILLER_0_45_217
*1829 FILLER_0_45_223
*1830 FILLER_0_45_225
*1831 FILLER_0_45_237
*1832 FILLER_0_45_249
*1833 FILLER_0_45_261
*1834 FILLER_0_45_27
*1835 FILLER_0_45_273
*1836 FILLER_0_45_279
*1837 FILLER_0_45_281
*1838 FILLER_0_45_293
*1839 FILLER_0_45_3
*1840 FILLER_0_45_305
*1841 FILLER_0_45_313
*1842 FILLER_0_45_337
*1843 FILLER_0_45_341
*1844 FILLER_0_45_363
*1845 FILLER_0_45_375
*1846 FILLER_0_45_387
*1847 FILLER_0_45_39
*1848 FILLER_0_45_391
*1849 FILLER_0_45_393
*1850 FILLER_0_45_405
*1851 FILLER_0_45_51
*1852 FILLER_0_45_55
*1853 FILLER_0_45_57
*1854 FILLER_0_45_69
*1855 FILLER_0_45_81
*1856 FILLER_0_45_93
*1857 FILLER_0_46_109
*1858 FILLER_0_46_121
*1859 FILLER_0_46_133
*1860 FILLER_0_46_139
*1861 FILLER_0_46_141
*1862 FILLER_0_46_15
*1863 FILLER_0_46_153
*1864 FILLER_0_46_165
*1865 FILLER_0_46_177
*1866 FILLER_0_46_189
*1867 FILLER_0_46_195
*1868 FILLER_0_46_197
*1869 FILLER_0_46_209
*1870 FILLER_0_46_221
*1871 FILLER_0_46_233
*1872 FILLER_0_46_245
*1873 FILLER_0_46_251
*1874 FILLER_0_46_253
*1875 FILLER_0_46_265
*1876 FILLER_0_46_27
*1877 FILLER_0_46_276
*1878 FILLER_0_46_288
*1879 FILLER_0_46_29
*1880 FILLER_0_46_3
*1881 FILLER_0_46_300
*1882 FILLER_0_46_309
*1883 FILLER_0_46_321
*1884 FILLER_0_46_328
*1885 FILLER_0_46_340
*1886 FILLER_0_46_352
*1887 FILLER_0_46_365
*1888 FILLER_0_46_377
*1889 FILLER_0_46_389
*1890 FILLER_0_46_401
*1891 FILLER_0_46_41
*1892 FILLER_0_46_53
*1893 FILLER_0_46_65
*1894 FILLER_0_46_77
*1895 FILLER_0_46_83
*1896 FILLER_0_46_85
*1897 FILLER_0_46_97
*1898 FILLER_0_47_105
*1899 FILLER_0_47_111
*1900 FILLER_0_47_113
*1901 FILLER_0_47_125
*1902 FILLER_0_47_137
*1903 FILLER_0_47_149
*1904 FILLER_0_47_15
*1905 FILLER_0_47_161
*1906 FILLER_0_47_167
*1907 FILLER_0_47_169
*1908 FILLER_0_47_181
*1909 FILLER_0_47_193
*1910 FILLER_0_47_205
*1911 FILLER_0_47_217
*1912 FILLER_0_47_223
*1913 FILLER_0_47_225
*1914 FILLER_0_47_237
*1915 FILLER_0_47_249
*1916 FILLER_0_47_261
*1917 FILLER_0_47_27
*1918 FILLER_0_47_273
*1919 FILLER_0_47_279
*1920 FILLER_0_47_281
*1921 FILLER_0_47_293
*1922 FILLER_0_47_3
*1923 FILLER_0_47_305
*1924 FILLER_0_47_317
*1925 FILLER_0_47_329
*1926 FILLER_0_47_335
*1927 FILLER_0_47_337
*1928 FILLER_0_47_349
*1929 FILLER_0_47_361
*1930 FILLER_0_47_373
*1931 FILLER_0_47_385
*1932 FILLER_0_47_39
*1933 FILLER_0_47_391
*1934 FILLER_0_47_393
*1935 FILLER_0_47_405
*1936 FILLER_0_47_51
*1937 FILLER_0_47_55
*1938 FILLER_0_47_57
*1939 FILLER_0_47_69
*1940 FILLER_0_47_81
*1941 FILLER_0_47_93
*1942 FILLER_0_48_109
*1943 FILLER_0_48_121
*1944 FILLER_0_48_133
*1945 FILLER_0_48_139
*1946 FILLER_0_48_141
*1947 FILLER_0_48_15
*1948 FILLER_0_48_153
*1949 FILLER_0_48_165
*1950 FILLER_0_48_177
*1951 FILLER_0_48_189
*1952 FILLER_0_48_195
*1953 FILLER_0_48_197
*1954 FILLER_0_48_209
*1955 FILLER_0_48_221
*1956 FILLER_0_48_233
*1957 FILLER_0_48_245
*1958 FILLER_0_48_251
*1959 FILLER_0_48_253
*1960 FILLER_0_48_265
*1961 FILLER_0_48_27
*1962 FILLER_0_48_277
*1963 FILLER_0_48_289
*1964 FILLER_0_48_29
*1965 FILLER_0_48_3
*1966 FILLER_0_48_301
*1967 FILLER_0_48_307
*1968 FILLER_0_48_309
*1969 FILLER_0_48_321
*1970 FILLER_0_48_333
*1971 FILLER_0_48_345
*1972 FILLER_0_48_357
*1973 FILLER_0_48_363
*1974 FILLER_0_48_365
*1975 FILLER_0_48_377
*1976 FILLER_0_48_389
*1977 FILLER_0_48_401
*1978 FILLER_0_48_41
*1979 FILLER_0_48_53
*1980 FILLER_0_48_65
*1981 FILLER_0_48_77
*1982 FILLER_0_48_83
*1983 FILLER_0_48_85
*1984 FILLER_0_48_97
*1985 FILLER_0_49_105
*1986 FILLER_0_49_111
*1987 FILLER_0_49_113
*1988 FILLER_0_49_125
*1989 FILLER_0_49_137
*1990 FILLER_0_49_149
*1991 FILLER_0_49_15
*1992 FILLER_0_49_161
*1993 FILLER_0_49_167
*1994 FILLER_0_49_169
*1995 FILLER_0_49_181
*1996 FILLER_0_49_193
*1997 FILLER_0_49_205
*1998 FILLER_0_49_217
*1999 FILLER_0_49_223
*2000 FILLER_0_49_225
*2001 FILLER_0_49_237
*2002 FILLER_0_49_249
*2003 FILLER_0_49_261
*2004 FILLER_0_49_27
*2005 FILLER_0_49_273
*2006 FILLER_0_49_279
*2007 FILLER_0_49_281
*2008 FILLER_0_49_293
*2009 FILLER_0_49_3
*2010 FILLER_0_49_305
*2011 FILLER_0_49_317
*2012 FILLER_0_49_329
*2013 FILLER_0_49_335
*2014 FILLER_0_49_337
*2015 FILLER_0_49_349
*2016 FILLER_0_49_361
*2017 FILLER_0_49_373
*2018 FILLER_0_49_385
*2019 FILLER_0_49_39
*2020 FILLER_0_49_391
*2021 FILLER_0_49_393
*2022 FILLER_0_49_405
*2023 FILLER_0_49_51
*2024 FILLER_0_49_55
*2025 FILLER_0_49_57
*2026 FILLER_0_49_69
*2027 FILLER_0_49_81
*2028 FILLER_0_49_93
*2029 FILLER_0_4_109
*2030 FILLER_0_4_121
*2031 FILLER_0_4_133
*2032 FILLER_0_4_139
*2033 FILLER_0_4_141
*2034 FILLER_0_4_15
*2035 FILLER_0_4_153
*2036 FILLER_0_4_165
*2037 FILLER_0_4_177
*2038 FILLER_0_4_189
*2039 FILLER_0_4_195
*2040 FILLER_0_4_197
*2041 FILLER_0_4_209
*2042 FILLER_0_4_221
*2043 FILLER_0_4_233
*2044 FILLER_0_4_245
*2045 FILLER_0_4_251
*2046 FILLER_0_4_253
*2047 FILLER_0_4_265
*2048 FILLER_0_4_27
*2049 FILLER_0_4_277
*2050 FILLER_0_4_289
*2051 FILLER_0_4_29
*2052 FILLER_0_4_3
*2053 FILLER_0_4_301
*2054 FILLER_0_4_307
*2055 FILLER_0_4_309
*2056 FILLER_0_4_321
*2057 FILLER_0_4_333
*2058 FILLER_0_4_345
*2059 FILLER_0_4_357
*2060 FILLER_0_4_363
*2061 FILLER_0_4_365
*2062 FILLER_0_4_377
*2063 FILLER_0_4_389
*2064 FILLER_0_4_401
*2065 FILLER_0_4_41
*2066 FILLER_0_4_53
*2067 FILLER_0_4_65
*2068 FILLER_0_4_77
*2069 FILLER_0_4_83
*2070 FILLER_0_4_85
*2071 FILLER_0_4_97
*2072 FILLER_0_50_109
*2073 FILLER_0_50_121
*2074 FILLER_0_50_133
*2075 FILLER_0_50_139
*2076 FILLER_0_50_141
*2077 FILLER_0_50_15
*2078 FILLER_0_50_153
*2079 FILLER_0_50_165
*2080 FILLER_0_50_177
*2081 FILLER_0_50_189
*2082 FILLER_0_50_195
*2083 FILLER_0_50_197
*2084 FILLER_0_50_209
*2085 FILLER_0_50_221
*2086 FILLER_0_50_233
*2087 FILLER_0_50_245
*2088 FILLER_0_50_251
*2089 FILLER_0_50_253
*2090 FILLER_0_50_265
*2091 FILLER_0_50_27
*2092 FILLER_0_50_277
*2093 FILLER_0_50_289
*2094 FILLER_0_50_29
*2095 FILLER_0_50_3
*2096 FILLER_0_50_301
*2097 FILLER_0_50_307
*2098 FILLER_0_50_309
*2099 FILLER_0_50_321
*2100 FILLER_0_50_333
*2101 FILLER_0_50_345
*2102 FILLER_0_50_357
*2103 FILLER_0_50_363
*2104 FILLER_0_50_365
*2105 FILLER_0_50_377
*2106 FILLER_0_50_389
*2107 FILLER_0_50_401
*2108 FILLER_0_50_41
*2109 FILLER_0_50_53
*2110 FILLER_0_50_65
*2111 FILLER_0_50_77
*2112 FILLER_0_50_83
*2113 FILLER_0_50_85
*2114 FILLER_0_50_97
*2115 FILLER_0_51_105
*2116 FILLER_0_51_11
*2117 FILLER_0_51_111
*2118 FILLER_0_51_113
*2119 FILLER_0_51_125
*2120 FILLER_0_51_137
*2121 FILLER_0_51_149
*2122 FILLER_0_51_161
*2123 FILLER_0_51_167
*2124 FILLER_0_51_169
*2125 FILLER_0_51_181
*2126 FILLER_0_51_193
*2127 FILLER_0_51_205
*2128 FILLER_0_51_217
*2129 FILLER_0_51_223
*2130 FILLER_0_51_225
*2131 FILLER_0_51_23
*2132 FILLER_0_51_237
*2133 FILLER_0_51_249
*2134 FILLER_0_51_261
*2135 FILLER_0_51_273
*2136 FILLER_0_51_279
*2137 FILLER_0_51_281
*2138 FILLER_0_51_293
*2139 FILLER_0_51_3
*2140 FILLER_0_51_305
*2141 FILLER_0_51_317
*2142 FILLER_0_51_329
*2143 FILLER_0_51_335
*2144 FILLER_0_51_337
*2145 FILLER_0_51_349
*2146 FILLER_0_51_35
*2147 FILLER_0_51_361
*2148 FILLER_0_51_373
*2149 FILLER_0_51_385
*2150 FILLER_0_51_391
*2151 FILLER_0_51_393
*2152 FILLER_0_51_405
*2153 FILLER_0_51_47
*2154 FILLER_0_51_55
*2155 FILLER_0_51_57
*2156 FILLER_0_51_69
*2157 FILLER_0_51_7
*2158 FILLER_0_51_81
*2159 FILLER_0_51_93
*2160 FILLER_0_52_109
*2161 FILLER_0_52_121
*2162 FILLER_0_52_133
*2163 FILLER_0_52_139
*2164 FILLER_0_52_141
*2165 FILLER_0_52_15
*2166 FILLER_0_52_153
*2167 FILLER_0_52_165
*2168 FILLER_0_52_177
*2169 FILLER_0_52_189
*2170 FILLER_0_52_195
*2171 FILLER_0_52_197
*2172 FILLER_0_52_209
*2173 FILLER_0_52_221
*2174 FILLER_0_52_233
*2175 FILLER_0_52_245
*2176 FILLER_0_52_251
*2177 FILLER_0_52_253
*2178 FILLER_0_52_265
*2179 FILLER_0_52_27
*2180 FILLER_0_52_277
*2181 FILLER_0_52_289
*2182 FILLER_0_52_29
*2183 FILLER_0_52_3
*2184 FILLER_0_52_301
*2185 FILLER_0_52_307
*2186 FILLER_0_52_309
*2187 FILLER_0_52_321
*2188 FILLER_0_52_333
*2189 FILLER_0_52_345
*2190 FILLER_0_52_357
*2191 FILLER_0_52_363
*2192 FILLER_0_52_365
*2193 FILLER_0_52_377
*2194 FILLER_0_52_389
*2195 FILLER_0_52_401
*2196 FILLER_0_52_41
*2197 FILLER_0_52_53
*2198 FILLER_0_52_65
*2199 FILLER_0_52_77
*2200 FILLER_0_52_83
*2201 FILLER_0_52_85
*2202 FILLER_0_52_97
*2203 FILLER_0_53_105
*2204 FILLER_0_53_111
*2205 FILLER_0_53_113
*2206 FILLER_0_53_125
*2207 FILLER_0_53_137
*2208 FILLER_0_53_149
*2209 FILLER_0_53_15
*2210 FILLER_0_53_161
*2211 FILLER_0_53_167
*2212 FILLER_0_53_169
*2213 FILLER_0_53_181
*2214 FILLER_0_53_193
*2215 FILLER_0_53_205
*2216 FILLER_0_53_217
*2217 FILLER_0_53_223
*2218 FILLER_0_53_225
*2219 FILLER_0_53_237
*2220 FILLER_0_53_249
*2221 FILLER_0_53_261
*2222 FILLER_0_53_27
*2223 FILLER_0_53_273
*2224 FILLER_0_53_279
*2225 FILLER_0_53_281
*2226 FILLER_0_53_293
*2227 FILLER_0_53_3
*2228 FILLER_0_53_305
*2229 FILLER_0_53_317
*2230 FILLER_0_53_329
*2231 FILLER_0_53_335
*2232 FILLER_0_53_337
*2233 FILLER_0_53_349
*2234 FILLER_0_53_361
*2235 FILLER_0_53_373
*2236 FILLER_0_53_385
*2237 FILLER_0_53_39
*2238 FILLER_0_53_391
*2239 FILLER_0_53_393
*2240 FILLER_0_53_402
*2241 FILLER_0_53_406
*2242 FILLER_0_53_51
*2243 FILLER_0_53_55
*2244 FILLER_0_53_57
*2245 FILLER_0_53_69
*2246 FILLER_0_53_81
*2247 FILLER_0_53_93
*2248 FILLER_0_54_109
*2249 FILLER_0_54_121
*2250 FILLER_0_54_133
*2251 FILLER_0_54_139
*2252 FILLER_0_54_141
*2253 FILLER_0_54_15
*2254 FILLER_0_54_153
*2255 FILLER_0_54_165
*2256 FILLER_0_54_177
*2257 FILLER_0_54_189
*2258 FILLER_0_54_195
*2259 FILLER_0_54_197
*2260 FILLER_0_54_209
*2261 FILLER_0_54_221
*2262 FILLER_0_54_233
*2263 FILLER_0_54_245
*2264 FILLER_0_54_251
*2265 FILLER_0_54_253
*2266 FILLER_0_54_265
*2267 FILLER_0_54_27
*2268 FILLER_0_54_277
*2269 FILLER_0_54_289
*2270 FILLER_0_54_29
*2271 FILLER_0_54_3
*2272 FILLER_0_54_301
*2273 FILLER_0_54_307
*2274 FILLER_0_54_309
*2275 FILLER_0_54_321
*2276 FILLER_0_54_333
*2277 FILLER_0_54_345
*2278 FILLER_0_54_357
*2279 FILLER_0_54_363
*2280 FILLER_0_54_365
*2281 FILLER_0_54_377
*2282 FILLER_0_54_389
*2283 FILLER_0_54_401
*2284 FILLER_0_54_41
*2285 FILLER_0_54_53
*2286 FILLER_0_54_65
*2287 FILLER_0_54_77
*2288 FILLER_0_54_83
*2289 FILLER_0_54_85
*2290 FILLER_0_54_97
*2291 FILLER_0_55_105
*2292 FILLER_0_55_111
*2293 FILLER_0_55_113
*2294 FILLER_0_55_125
*2295 FILLER_0_55_137
*2296 FILLER_0_55_149
*2297 FILLER_0_55_15
*2298 FILLER_0_55_161
*2299 FILLER_0_55_167
*2300 FILLER_0_55_169
*2301 FILLER_0_55_181
*2302 FILLER_0_55_193
*2303 FILLER_0_55_205
*2304 FILLER_0_55_217
*2305 FILLER_0_55_223
*2306 FILLER_0_55_225
*2307 FILLER_0_55_237
*2308 FILLER_0_55_249
*2309 FILLER_0_55_261
*2310 FILLER_0_55_27
*2311 FILLER_0_55_273
*2312 FILLER_0_55_279
*2313 FILLER_0_55_281
*2314 FILLER_0_55_293
*2315 FILLER_0_55_3
*2316 FILLER_0_55_305
*2317 FILLER_0_55_317
*2318 FILLER_0_55_329
*2319 FILLER_0_55_335
*2320 FILLER_0_55_337
*2321 FILLER_0_55_349
*2322 FILLER_0_55_361
*2323 FILLER_0_55_373
*2324 FILLER_0_55_385
*2325 FILLER_0_55_39
*2326 FILLER_0_55_391
*2327 FILLER_0_55_393
*2328 FILLER_0_55_405
*2329 FILLER_0_55_51
*2330 FILLER_0_55_55
*2331 FILLER_0_55_57
*2332 FILLER_0_55_69
*2333 FILLER_0_55_81
*2334 FILLER_0_55_93
*2335 FILLER_0_56_109
*2336 FILLER_0_56_121
*2337 FILLER_0_56_133
*2338 FILLER_0_56_139
*2339 FILLER_0_56_141
*2340 FILLER_0_56_15
*2341 FILLER_0_56_153
*2342 FILLER_0_56_165
*2343 FILLER_0_56_177
*2344 FILLER_0_56_189
*2345 FILLER_0_56_195
*2346 FILLER_0_56_197
*2347 FILLER_0_56_209
*2348 FILLER_0_56_221
*2349 FILLER_0_56_233
*2350 FILLER_0_56_245
*2351 FILLER_0_56_251
*2352 FILLER_0_56_253
*2353 FILLER_0_56_265
*2354 FILLER_0_56_27
*2355 FILLER_0_56_277
*2356 FILLER_0_56_289
*2357 FILLER_0_56_29
*2358 FILLER_0_56_3
*2359 FILLER_0_56_301
*2360 FILLER_0_56_307
*2361 FILLER_0_56_309
*2362 FILLER_0_56_321
*2363 FILLER_0_56_333
*2364 FILLER_0_56_345
*2365 FILLER_0_56_357
*2366 FILLER_0_56_363
*2367 FILLER_0_56_365
*2368 FILLER_0_56_377
*2369 FILLER_0_56_389
*2370 FILLER_0_56_401
*2371 FILLER_0_56_41
*2372 FILLER_0_56_53
*2373 FILLER_0_56_65
*2374 FILLER_0_56_77
*2375 FILLER_0_56_83
*2376 FILLER_0_56_85
*2377 FILLER_0_56_97
*2378 FILLER_0_57_105
*2379 FILLER_0_57_111
*2380 FILLER_0_57_113
*2381 FILLER_0_57_125
*2382 FILLER_0_57_137
*2383 FILLER_0_57_149
*2384 FILLER_0_57_15
*2385 FILLER_0_57_161
*2386 FILLER_0_57_167
*2387 FILLER_0_57_169
*2388 FILLER_0_57_181
*2389 FILLER_0_57_193
*2390 FILLER_0_57_205
*2391 FILLER_0_57_217
*2392 FILLER_0_57_223
*2393 FILLER_0_57_225
*2394 FILLER_0_57_237
*2395 FILLER_0_57_249
*2396 FILLER_0_57_261
*2397 FILLER_0_57_27
*2398 FILLER_0_57_273
*2399 FILLER_0_57_279
*2400 FILLER_0_57_281
*2401 FILLER_0_57_293
*2402 FILLER_0_57_3
*2403 FILLER_0_57_305
*2404 FILLER_0_57_317
*2405 FILLER_0_57_329
*2406 FILLER_0_57_335
*2407 FILLER_0_57_337
*2408 FILLER_0_57_349
*2409 FILLER_0_57_361
*2410 FILLER_0_57_373
*2411 FILLER_0_57_385
*2412 FILLER_0_57_39
*2413 FILLER_0_57_391
*2414 FILLER_0_57_393
*2415 FILLER_0_57_405
*2416 FILLER_0_57_51
*2417 FILLER_0_57_55
*2418 FILLER_0_57_57
*2419 FILLER_0_57_69
*2420 FILLER_0_57_81
*2421 FILLER_0_57_93
*2422 FILLER_0_58_109
*2423 FILLER_0_58_121
*2424 FILLER_0_58_133
*2425 FILLER_0_58_139
*2426 FILLER_0_58_141
*2427 FILLER_0_58_15
*2428 FILLER_0_58_153
*2429 FILLER_0_58_165
*2430 FILLER_0_58_177
*2431 FILLER_0_58_189
*2432 FILLER_0_58_195
*2433 FILLER_0_58_197
*2434 FILLER_0_58_209
*2435 FILLER_0_58_221
*2436 FILLER_0_58_233
*2437 FILLER_0_58_245
*2438 FILLER_0_58_251
*2439 FILLER_0_58_253
*2440 FILLER_0_58_265
*2441 FILLER_0_58_27
*2442 FILLER_0_58_277
*2443 FILLER_0_58_289
*2444 FILLER_0_58_29
*2445 FILLER_0_58_3
*2446 FILLER_0_58_301
*2447 FILLER_0_58_307
*2448 FILLER_0_58_309
*2449 FILLER_0_58_321
*2450 FILLER_0_58_333
*2451 FILLER_0_58_345
*2452 FILLER_0_58_357
*2453 FILLER_0_58_363
*2454 FILLER_0_58_365
*2455 FILLER_0_58_377
*2456 FILLER_0_58_389
*2457 FILLER_0_58_401
*2458 FILLER_0_58_41
*2459 FILLER_0_58_53
*2460 FILLER_0_58_65
*2461 FILLER_0_58_77
*2462 FILLER_0_58_83
*2463 FILLER_0_58_85
*2464 FILLER_0_58_97
*2465 FILLER_0_59_105
*2466 FILLER_0_59_111
*2467 FILLER_0_59_113
*2468 FILLER_0_59_125
*2469 FILLER_0_59_137
*2470 FILLER_0_59_149
*2471 FILLER_0_59_15
*2472 FILLER_0_59_161
*2473 FILLER_0_59_167
*2474 FILLER_0_59_169
*2475 FILLER_0_59_181
*2476 FILLER_0_59_193
*2477 FILLER_0_59_205
*2478 FILLER_0_59_217
*2479 FILLER_0_59_223
*2480 FILLER_0_59_225
*2481 FILLER_0_59_237
*2482 FILLER_0_59_249
*2483 FILLER_0_59_261
*2484 FILLER_0_59_27
*2485 FILLER_0_59_273
*2486 FILLER_0_59_279
*2487 FILLER_0_59_281
*2488 FILLER_0_59_293
*2489 FILLER_0_59_3
*2490 FILLER_0_59_305
*2491 FILLER_0_59_317
*2492 FILLER_0_59_329
*2493 FILLER_0_59_335
*2494 FILLER_0_59_337
*2495 FILLER_0_59_349
*2496 FILLER_0_59_361
*2497 FILLER_0_59_373
*2498 FILLER_0_59_385
*2499 FILLER_0_59_39
*2500 FILLER_0_59_391
*2501 FILLER_0_59_393
*2502 FILLER_0_59_405
*2503 FILLER_0_59_51
*2504 FILLER_0_59_55
*2505 FILLER_0_59_57
*2506 FILLER_0_59_69
*2507 FILLER_0_59_81
*2508 FILLER_0_59_93
*2509 FILLER_0_5_105
*2510 FILLER_0_5_111
*2511 FILLER_0_5_113
*2512 FILLER_0_5_125
*2513 FILLER_0_5_137
*2514 FILLER_0_5_149
*2515 FILLER_0_5_15
*2516 FILLER_0_5_161
*2517 FILLER_0_5_167
*2518 FILLER_0_5_169
*2519 FILLER_0_5_181
*2520 FILLER_0_5_193
*2521 FILLER_0_5_205
*2522 FILLER_0_5_217
*2523 FILLER_0_5_223
*2524 FILLER_0_5_225
*2525 FILLER_0_5_237
*2526 FILLER_0_5_249
*2527 FILLER_0_5_261
*2528 FILLER_0_5_27
*2529 FILLER_0_5_273
*2530 FILLER_0_5_279
*2531 FILLER_0_5_281
*2532 FILLER_0_5_293
*2533 FILLER_0_5_3
*2534 FILLER_0_5_305
*2535 FILLER_0_5_317
*2536 FILLER_0_5_329
*2537 FILLER_0_5_335
*2538 FILLER_0_5_337
*2539 FILLER_0_5_349
*2540 FILLER_0_5_361
*2541 FILLER_0_5_373
*2542 FILLER_0_5_385
*2543 FILLER_0_5_39
*2544 FILLER_0_5_391
*2545 FILLER_0_5_393
*2546 FILLER_0_5_405
*2547 FILLER_0_5_51
*2548 FILLER_0_5_55
*2549 FILLER_0_5_57
*2550 FILLER_0_5_69
*2551 FILLER_0_5_81
*2552 FILLER_0_5_93
*2553 FILLER_0_60_109
*2554 FILLER_0_60_121
*2555 FILLER_0_60_133
*2556 FILLER_0_60_139
*2557 FILLER_0_60_141
*2558 FILLER_0_60_15
*2559 FILLER_0_60_153
*2560 FILLER_0_60_165
*2561 FILLER_0_60_177
*2562 FILLER_0_60_189
*2563 FILLER_0_60_195
*2564 FILLER_0_60_197
*2565 FILLER_0_60_209
*2566 FILLER_0_60_221
*2567 FILLER_0_60_233
*2568 FILLER_0_60_245
*2569 FILLER_0_60_251
*2570 FILLER_0_60_253
*2571 FILLER_0_60_265
*2572 FILLER_0_60_27
*2573 FILLER_0_60_277
*2574 FILLER_0_60_289
*2575 FILLER_0_60_29
*2576 FILLER_0_60_3
*2577 FILLER_0_60_301
*2578 FILLER_0_60_307
*2579 FILLER_0_60_309
*2580 FILLER_0_60_321
*2581 FILLER_0_60_333
*2582 FILLER_0_60_345
*2583 FILLER_0_60_357
*2584 FILLER_0_60_363
*2585 FILLER_0_60_365
*2586 FILLER_0_60_377
*2587 FILLER_0_60_389
*2588 FILLER_0_60_401
*2589 FILLER_0_60_41
*2590 FILLER_0_60_53
*2591 FILLER_0_60_65
*2592 FILLER_0_60_77
*2593 FILLER_0_60_83
*2594 FILLER_0_60_85
*2595 FILLER_0_60_97
*2596 FILLER_0_61_105
*2597 FILLER_0_61_111
*2598 FILLER_0_61_113
*2599 FILLER_0_61_125
*2600 FILLER_0_61_137
*2601 FILLER_0_61_149
*2602 FILLER_0_61_15
*2603 FILLER_0_61_161
*2604 FILLER_0_61_167
*2605 FILLER_0_61_169
*2606 FILLER_0_61_181
*2607 FILLER_0_61_193
*2608 FILLER_0_61_205
*2609 FILLER_0_61_217
*2610 FILLER_0_61_223
*2611 FILLER_0_61_225
*2612 FILLER_0_61_237
*2613 FILLER_0_61_249
*2614 FILLER_0_61_261
*2615 FILLER_0_61_27
*2616 FILLER_0_61_273
*2617 FILLER_0_61_279
*2618 FILLER_0_61_281
*2619 FILLER_0_61_293
*2620 FILLER_0_61_3
*2621 FILLER_0_61_305
*2622 FILLER_0_61_317
*2623 FILLER_0_61_329
*2624 FILLER_0_61_335
*2625 FILLER_0_61_337
*2626 FILLER_0_61_349
*2627 FILLER_0_61_361
*2628 FILLER_0_61_373
*2629 FILLER_0_61_385
*2630 FILLER_0_61_39
*2631 FILLER_0_61_391
*2632 FILLER_0_61_393
*2633 FILLER_0_61_405
*2634 FILLER_0_61_51
*2635 FILLER_0_61_55
*2636 FILLER_0_61_57
*2637 FILLER_0_61_69
*2638 FILLER_0_61_81
*2639 FILLER_0_61_93
*2640 FILLER_0_62_109
*2641 FILLER_0_62_121
*2642 FILLER_0_62_133
*2643 FILLER_0_62_139
*2644 FILLER_0_62_141
*2645 FILLER_0_62_15
*2646 FILLER_0_62_153
*2647 FILLER_0_62_165
*2648 FILLER_0_62_177
*2649 FILLER_0_62_189
*2650 FILLER_0_62_195
*2651 FILLER_0_62_197
*2652 FILLER_0_62_209
*2653 FILLER_0_62_221
*2654 FILLER_0_62_233
*2655 FILLER_0_62_245
*2656 FILLER_0_62_251
*2657 FILLER_0_62_253
*2658 FILLER_0_62_265
*2659 FILLER_0_62_27
*2660 FILLER_0_62_277
*2661 FILLER_0_62_289
*2662 FILLER_0_62_29
*2663 FILLER_0_62_3
*2664 FILLER_0_62_301
*2665 FILLER_0_62_307
*2666 FILLER_0_62_309
*2667 FILLER_0_62_321
*2668 FILLER_0_62_333
*2669 FILLER_0_62_345
*2670 FILLER_0_62_357
*2671 FILLER_0_62_363
*2672 FILLER_0_62_365
*2673 FILLER_0_62_377
*2674 FILLER_0_62_389
*2675 FILLER_0_62_401
*2676 FILLER_0_62_41
*2677 FILLER_0_62_53
*2678 FILLER_0_62_65
*2679 FILLER_0_62_77
*2680 FILLER_0_62_83
*2681 FILLER_0_62_85
*2682 FILLER_0_62_97
*2683 FILLER_0_63_106
*2684 FILLER_0_63_11
*2685 FILLER_0_63_113
*2686 FILLER_0_63_125
*2687 FILLER_0_63_131
*2688 FILLER_0_63_143
*2689 FILLER_0_63_151
*2690 FILLER_0_63_157
*2691 FILLER_0_63_165
*2692 FILLER_0_63_169
*2693 FILLER_0_63_181
*2694 FILLER_0_63_189
*2695 FILLER_0_63_194
*2696 FILLER_0_63_206
*2697 FILLER_0_63_218
*2698 FILLER_0_63_225
*2699 FILLER_0_63_23
*2700 FILLER_0_63_237
*2701 FILLER_0_63_249
*2702 FILLER_0_63_264
*2703 FILLER_0_63_276
*2704 FILLER_0_63_281
*2705 FILLER_0_63_293
*2706 FILLER_0_63_297
*2707 FILLER_0_63_3
*2708 FILLER_0_63_309
*2709 FILLER_0_63_321
*2710 FILLER_0_63_333
*2711 FILLER_0_63_337
*2712 FILLER_0_63_349
*2713 FILLER_0_63_35
*2714 FILLER_0_63_361
*2715 FILLER_0_63_367
*2716 FILLER_0_63_379
*2717 FILLER_0_63_391
*2718 FILLER_0_63_393
*2719 FILLER_0_63_405
*2720 FILLER_0_63_47
*2721 FILLER_0_63_55
*2722 FILLER_0_63_57
*2723 FILLER_0_63_69
*2724 FILLER_0_63_7
*2725 FILLER_0_63_81
*2726 FILLER_0_63_89
*2727 FILLER_0_63_94
*2728 FILLER_0_64_109
*2729 FILLER_0_64_113
*2730 FILLER_0_64_125
*2731 FILLER_0_64_137
*2732 FILLER_0_64_141
*2733 FILLER_0_64_15
*2734 FILLER_0_64_153
*2735 FILLER_0_64_165
*2736 FILLER_0_64_169
*2737 FILLER_0_64_181
*2738 FILLER_0_64_193
*2739 FILLER_0_64_197
*2740 FILLER_0_64_209
*2741 FILLER_0_64_221
*2742 FILLER_0_64_225
*2743 FILLER_0_64_237
*2744 FILLER_0_64_249
*2745 FILLER_0_64_253
*2746 FILLER_0_64_265
*2747 FILLER_0_64_27
*2748 FILLER_0_64_277
*2749 FILLER_0_64_281
*2750 FILLER_0_64_29
*2751 FILLER_0_64_293
*2752 FILLER_0_64_3
*2753 FILLER_0_64_305
*2754 FILLER_0_64_309
*2755 FILLER_0_64_321
*2756 FILLER_0_64_333
*2757 FILLER_0_64_337
*2758 FILLER_0_64_349
*2759 FILLER_0_64_361
*2760 FILLER_0_64_365
*2761 FILLER_0_64_377
*2762 FILLER_0_64_389
*2763 FILLER_0_64_393
*2764 FILLER_0_64_405
*2765 FILLER_0_64_41
*2766 FILLER_0_64_53
*2767 FILLER_0_64_57
*2768 FILLER_0_64_69
*2769 FILLER_0_64_81
*2770 FILLER_0_64_85
*2771 FILLER_0_64_97
*2772 FILLER_0_6_109
*2773 FILLER_0_6_121
*2774 FILLER_0_6_133
*2775 FILLER_0_6_139
*2776 FILLER_0_6_141
*2777 FILLER_0_6_15
*2778 FILLER_0_6_153
*2779 FILLER_0_6_165
*2780 FILLER_0_6_177
*2781 FILLER_0_6_189
*2782 FILLER_0_6_195
*2783 FILLER_0_6_197
*2784 FILLER_0_6_209
*2785 FILLER_0_6_221
*2786 FILLER_0_6_233
*2787 FILLER_0_6_245
*2788 FILLER_0_6_251
*2789 FILLER_0_6_253
*2790 FILLER_0_6_265
*2791 FILLER_0_6_27
*2792 FILLER_0_6_277
*2793 FILLER_0_6_289
*2794 FILLER_0_6_29
*2795 FILLER_0_6_3
*2796 FILLER_0_6_301
*2797 FILLER_0_6_307
*2798 FILLER_0_6_309
*2799 FILLER_0_6_321
*2800 FILLER_0_6_333
*2801 FILLER_0_6_345
*2802 FILLER_0_6_357
*2803 FILLER_0_6_363
*2804 FILLER_0_6_365
*2805 FILLER_0_6_377
*2806 FILLER_0_6_389
*2807 FILLER_0_6_401
*2808 FILLER_0_6_41
*2809 FILLER_0_6_53
*2810 FILLER_0_6_65
*2811 FILLER_0_6_77
*2812 FILLER_0_6_83
*2813 FILLER_0_6_85
*2814 FILLER_0_6_97
*2815 FILLER_0_7_105
*2816 FILLER_0_7_111
*2817 FILLER_0_7_113
*2818 FILLER_0_7_125
*2819 FILLER_0_7_137
*2820 FILLER_0_7_149
*2821 FILLER_0_7_15
*2822 FILLER_0_7_161
*2823 FILLER_0_7_167
*2824 FILLER_0_7_169
*2825 FILLER_0_7_181
*2826 FILLER_0_7_193
*2827 FILLER_0_7_205
*2828 FILLER_0_7_217
*2829 FILLER_0_7_223
*2830 FILLER_0_7_225
*2831 FILLER_0_7_237
*2832 FILLER_0_7_249
*2833 FILLER_0_7_261
*2834 FILLER_0_7_27
*2835 FILLER_0_7_273
*2836 FILLER_0_7_279
*2837 FILLER_0_7_281
*2838 FILLER_0_7_293
*2839 FILLER_0_7_3
*2840 FILLER_0_7_305
*2841 FILLER_0_7_317
*2842 FILLER_0_7_329
*2843 FILLER_0_7_335
*2844 FILLER_0_7_337
*2845 FILLER_0_7_349
*2846 FILLER_0_7_361
*2847 FILLER_0_7_373
*2848 FILLER_0_7_385
*2849 FILLER_0_7_39
*2850 FILLER_0_7_391
*2851 FILLER_0_7_393
*2852 FILLER_0_7_405
*2853 FILLER_0_7_51
*2854 FILLER_0_7_55
*2855 FILLER_0_7_57
*2856 FILLER_0_7_69
*2857 FILLER_0_7_81
*2858 FILLER_0_7_93
*2859 FILLER_0_8_109
*2860 FILLER_0_8_121
*2861 FILLER_0_8_133
*2862 FILLER_0_8_139
*2863 FILLER_0_8_141
*2864 FILLER_0_8_15
*2865 FILLER_0_8_153
*2866 FILLER_0_8_165
*2867 FILLER_0_8_177
*2868 FILLER_0_8_189
*2869 FILLER_0_8_195
*2870 FILLER_0_8_197
*2871 FILLER_0_8_209
*2872 FILLER_0_8_221
*2873 FILLER_0_8_233
*2874 FILLER_0_8_245
*2875 FILLER_0_8_251
*2876 FILLER_0_8_253
*2877 FILLER_0_8_265
*2878 FILLER_0_8_27
*2879 FILLER_0_8_277
*2880 FILLER_0_8_289
*2881 FILLER_0_8_29
*2882 FILLER_0_8_3
*2883 FILLER_0_8_301
*2884 FILLER_0_8_307
*2885 FILLER_0_8_309
*2886 FILLER_0_8_321
*2887 FILLER_0_8_333
*2888 FILLER_0_8_345
*2889 FILLER_0_8_357
*2890 FILLER_0_8_363
*2891 FILLER_0_8_365
*2892 FILLER_0_8_377
*2893 FILLER_0_8_389
*2894 FILLER_0_8_401
*2895 FILLER_0_8_41
*2896 FILLER_0_8_53
*2897 FILLER_0_8_65
*2898 FILLER_0_8_77
*2899 FILLER_0_8_83
*2900 FILLER_0_8_85
*2901 FILLER_0_8_97
*2902 FILLER_0_9_105
*2903 FILLER_0_9_111
*2904 FILLER_0_9_113
*2905 FILLER_0_9_125
*2906 FILLER_0_9_137
*2907 FILLER_0_9_149
*2908 FILLER_0_9_15
*2909 FILLER_0_9_161
*2910 FILLER_0_9_167
*2911 FILLER_0_9_169
*2912 FILLER_0_9_181
*2913 FILLER_0_9_193
*2914 FILLER_0_9_205
*2915 FILLER_0_9_217
*2916 FILLER_0_9_223
*2917 FILLER_0_9_225
*2918 FILLER_0_9_237
*2919 FILLER_0_9_249
*2920 FILLER_0_9_261
*2921 FILLER_0_9_27
*2922 FILLER_0_9_273
*2923 FILLER_0_9_279
*2924 FILLER_0_9_281
*2925 FILLER_0_9_293
*2926 FILLER_0_9_3
*2927 FILLER_0_9_305
*2928 FILLER_0_9_317
*2929 FILLER_0_9_329
*2930 FILLER_0_9_335
*2931 FILLER_0_9_337
*2932 FILLER_0_9_349
*2933 FILLER_0_9_361
*2934 FILLER_0_9_373
*2935 FILLER_0_9_385
*2936 FILLER_0_9_39
*2937 FILLER_0_9_391
*2938 FILLER_0_9_393
*2939 FILLER_0_9_405
*2940 FILLER_0_9_51
*2941 FILLER_0_9_55
*2942 FILLER_0_9_57
*2943 FILLER_0_9_69
*2944 FILLER_0_9_81
*2945 FILLER_0_9_93
*2946 PHY_0
*2947 PHY_1
*2948 PHY_10
*2949 PHY_100
*2950 PHY_101
*2951 PHY_102
*2952 PHY_103
*2953 PHY_104
*2954 PHY_105
*2955 PHY_106
*2956 PHY_107
*2957 PHY_108
*2958 PHY_109
*2959 PHY_11
*2960 PHY_110
*2961 PHY_111
*2962 PHY_112
*2963 PHY_113
*2964 PHY_114
*2965 PHY_115
*2966 PHY_116
*2967 PHY_117
*2968 PHY_118
*2969 PHY_119
*2970 PHY_12
*2971 PHY_120
*2972 PHY_121
*2973 PHY_122
*2974 PHY_123
*2975 PHY_124
*2976 PHY_125
*2977 PHY_126
*2978 PHY_127
*2979 PHY_128
*2980 PHY_129
*2981 PHY_13
*2982 PHY_130
*2983 PHY_131
*2984 PHY_132
*2985 PHY_133
*2986 PHY_134
*2987 PHY_135
*2988 PHY_136
*2989 PHY_137
*2990 PHY_138
*2991 PHY_139
*2992 PHY_14
*2993 PHY_140
*2994 PHY_141
*2995 PHY_142
*2996 PHY_143
*2997 PHY_144
*2998 PHY_145
*2999 PHY_146
*3000 PHY_147
*3001 PHY_148
*3002 PHY_149
*3003 PHY_15
*3004 PHY_150
*3005 PHY_151
*3006 PHY_16
*3007 PHY_17
*3008 PHY_18
*3009 PHY_19
*3010 PHY_2
*3011 PHY_20
*3012 PHY_21
*3013 PHY_22
*3014 PHY_23
*3015 PHY_24
*3016 PHY_25
*3017 PHY_26
*3018 PHY_27
*3019 PHY_28
*3020 PHY_29
*3021 PHY_3
*3022 PHY_30
*3023 PHY_31
*3024 PHY_32
*3025 PHY_33
*3026 PHY_34
*3027 PHY_35
*3028 PHY_36
*3029 PHY_37
*3030 PHY_38
*3031 PHY_39
*3032 PHY_4
*3033 PHY_40
*3034 PHY_41
*3035 PHY_42
*3036 PHY_43
*3037 PHY_44
*3038 PHY_45
*3039 PHY_46
*3040 PHY_47
*3041 PHY_48
*3042 PHY_49
*3043 PHY_5
*3044 PHY_50
*3045 PHY_51
*3046 PHY_52
*3047 PHY_53
*3048 PHY_54
*3049 PHY_55
*3050 PHY_56
*3051 PHY_57
*3052 PHY_58
*3053 PHY_59
*3054 PHY_6
*3055 PHY_60
*3056 PHY_61
*3057 PHY_62
*3058 PHY_63
*3059 PHY_64
*3060 PHY_65
*3061 PHY_66
*3062 PHY_67
*3063 PHY_68
*3064 PHY_69
*3065 PHY_7
*3066 PHY_70
*3067 PHY_71
*3068 PHY_72
*3069 PHY_73
*3070 PHY_74
*3071 PHY_75
*3072 PHY_76
*3073 PHY_77
*3074 PHY_78
*3075 PHY_79
*3076 PHY_8
*3077 PHY_80
*3078 PHY_81
*3079 PHY_82
*3080 PHY_83
*3081 PHY_84
*3082 PHY_85
*3083 PHY_86
*3084 PHY_87
*3085 PHY_88
*3086 PHY_89
*3087 PHY_9
*3088 PHY_90
*3089 PHY_91
*3090 PHY_92
*3091 PHY_93
*3092 PHY_94
*3093 PHY_95
*3094 PHY_96
*3095 PHY_97
*3096 PHY_98
*3097 PHY_99
*3098 TAP_152
*3099 TAP_153
*3100 TAP_154
*3101 TAP_155
*3102 TAP_156
*3103 TAP_157
*3104 TAP_158
*3105 TAP_159
*3106 TAP_160
*3107 TAP_161
*3108 TAP_162
*3109 TAP_163
*3110 TAP_164
*3111 TAP_165
*3112 TAP_166
*3113 TAP_167
*3114 TAP_168
*3115 TAP_169
*3116 TAP_170
*3117 TAP_171
*3118 TAP_172
*3119 TAP_173
*3120 TAP_174
*3121 TAP_175
*3122 TAP_176
*3123 TAP_177
*3124 TAP_178
*3125 TAP_179
*3126 TAP_180
*3127 TAP_181
*3128 TAP_182
*3129 TAP_183
*3130 TAP_184
*3131 TAP_185
*3132 TAP_186
*3133 TAP_187
*3134 TAP_188
*3135 TAP_189
*3136 TAP_190
*3137 TAP_191
*3138 TAP_192
*3139 TAP_193
*3140 TAP_194
*3141 TAP_195
*3142 TAP_196
*3143 TAP_197
*3144 TAP_198
*3145 TAP_199
*3146 TAP_200
*3147 TAP_201
*3148 TAP_202
*3149 TAP_203
*3150 TAP_204
*3151 TAP_205
*3152 TAP_206
*3153 TAP_207
*3154 TAP_208
*3155 TAP_209
*3156 TAP_210
*3157 TAP_211
*3158 TAP_212
*3159 TAP_213
*3160 TAP_214
*3161 TAP_215
*3162 TAP_216
*3163 TAP_217
*3164 TAP_218
*3165 TAP_219
*3166 TAP_220
*3167 TAP_221
*3168 TAP_222
*3169 TAP_223
*3170 TAP_224
*3171 TAP_225
*3172 TAP_226
*3173 TAP_227
*3174 TAP_228
*3175 TAP_229
*3176 TAP_230
*3177 TAP_231
*3178 TAP_232
*3179 TAP_233
*3180 TAP_234
*3181 TAP_235
*3182 TAP_236
*3183 TAP_237
*3184 TAP_238
*3185 TAP_239
*3186 TAP_240
*3187 TAP_241
*3188 TAP_242
*3189 TAP_243
*3190 TAP_244
*3191 TAP_245
*3192 TAP_246
*3193 TAP_247
*3194 TAP_248
*3195 TAP_249
*3196 TAP_250
*3197 TAP_251
*3198 TAP_252
*3199 TAP_253
*3200 TAP_254
*3201 TAP_255
*3202 TAP_256
*3203 TAP_257
*3204 TAP_258
*3205 TAP_259
*3206 TAP_260
*3207 TAP_261
*3208 TAP_262
*3209 TAP_263
*3210 TAP_264
*3211 TAP_265
*3212 TAP_266
*3213 TAP_267
*3214 TAP_268
*3215 TAP_269
*3216 TAP_270
*3217 TAP_271
*3218 TAP_272
*3219 TAP_273
*3220 TAP_274
*3221 TAP_275
*3222 TAP_276
*3223 TAP_277
*3224 TAP_278
*3225 TAP_279
*3226 TAP_280
*3227 TAP_281
*3228 TAP_282
*3229 TAP_283
*3230 TAP_284
*3231 TAP_285
*3232 TAP_286
*3233 TAP_287
*3234 TAP_288
*3235 TAP_289
*3236 TAP_290
*3237 TAP_291
*3238 TAP_292
*3239 TAP_293
*3240 TAP_294
*3241 TAP_295
*3242 TAP_296
*3243 TAP_297
*3244 TAP_298
*3245 TAP_299
*3246 TAP_300
*3247 TAP_301
*3248 TAP_302
*3249 TAP_303
*3250 TAP_304
*3251 TAP_305
*3252 TAP_306
*3253 TAP_307
*3254 TAP_308
*3255 TAP_309
*3256 TAP_310
*3257 TAP_311
*3258 TAP_312
*3259 TAP_313
*3260 TAP_314
*3261 TAP_315
*3262 TAP_316
*3263 TAP_317
*3264 TAP_318
*3265 TAP_319
*3266 TAP_320
*3267 TAP_321
*3268 TAP_322
*3269 TAP_323
*3270 TAP_324
*3271 TAP_325
*3272 TAP_326
*3273 TAP_327
*3274 TAP_328
*3275 TAP_329
*3276 TAP_330
*3277 TAP_331
*3278 TAP_332
*3279 TAP_333
*3280 TAP_334
*3281 TAP_335
*3282 TAP_336
*3283 TAP_337
*3284 TAP_338
*3285 TAP_339
*3286 TAP_340
*3287 TAP_341
*3288 TAP_342
*3289 TAP_343
*3290 TAP_344
*3291 TAP_345
*3292 TAP_346
*3293 TAP_347
*3294 TAP_348
*3295 TAP_349
*3296 TAP_350
*3297 TAP_351
*3298 TAP_352
*3299 TAP_353
*3300 TAP_354
*3301 TAP_355
*3302 TAP_356
*3303 TAP_357
*3304 TAP_358
*3305 TAP_359
*3306 TAP_360
*3307 TAP_361
*3308 TAP_362
*3309 TAP_363
*3310 TAP_364
*3311 TAP_365
*3312 TAP_366
*3313 TAP_367
*3314 TAP_368
*3315 TAP_369
*3316 TAP_370
*3317 TAP_371
*3318 TAP_372
*3319 TAP_373
*3320 TAP_374
*3321 TAP_375
*3322 TAP_376
*3323 TAP_377
*3324 TAP_378
*3325 TAP_379
*3326 TAP_380
*3327 TAP_381
*3328 TAP_382
*3329 TAP_383
*3330 TAP_384
*3331 TAP_385
*3332 TAP_386
*3333 TAP_387
*3334 TAP_388
*3335 TAP_389
*3336 TAP_390
*3337 TAP_391
*3338 TAP_392
*3339 TAP_393
*3340 TAP_394
*3341 TAP_395
*3342 TAP_396
*3343 TAP_397
*3344 TAP_398
*3345 TAP_399
*3346 TAP_400
*3347 TAP_401
*3348 TAP_402
*3349 TAP_403
*3350 TAP_404
*3351 TAP_405
*3352 TAP_406
*3353 TAP_407
*3354 TAP_408
*3355 TAP_409
*3356 TAP_410
*3357 TAP_411
*3358 TAP_412
*3359 TAP_413
*3360 TAP_414
*3361 TAP_415
*3362 TAP_416
*3363 TAP_417
*3364 TAP_418
*3365 TAP_419
*3366 TAP_420
*3367 TAP_421
*3368 TAP_422
*3369 TAP_423
*3370 TAP_424
*3371 TAP_425
*3372 TAP_426
*3373 TAP_427
*3374 TAP_428
*3375 TAP_429
*3376 TAP_430
*3377 TAP_431
*3378 TAP_432
*3379 TAP_433
*3380 TAP_434
*3381 TAP_435
*3382 TAP_436
*3383 TAP_437
*3384 TAP_438
*3385 TAP_439
*3386 TAP_440
*3387 TAP_441
*3388 TAP_442
*3389 TAP_443
*3390 TAP_444
*3391 TAP_445
*3392 TAP_446
*3393 TAP_447
*3394 TAP_448
*3395 TAP_449
*3396 TAP_450
*3397 TAP_451
*3398 TAP_452
*3399 TAP_453
*3400 TAP_454
*3401 TAP_455
*3402 TAP_456
*3403 TAP_457
*3404 TAP_458
*3405 TAP_459
*3406 TAP_460
*3407 TAP_461
*3408 TAP_462
*3409 TAP_463
*3410 TAP_464
*3411 TAP_465
*3412 TAP_466
*3413 TAP_467
*3414 TAP_468
*3415 TAP_469
*3416 TAP_470
*3417 TAP_471
*3418 TAP_472
*3419 TAP_473
*3420 TAP_474
*3421 TAP_475
*3422 TAP_476
*3423 TAP_477
*3424 TAP_478
*3425 TAP_479
*3426 TAP_480
*3427 TAP_481
*3428 TAP_482
*3429 TAP_483
*3430 TAP_484
*3431 TAP_485
*3432 TAP_486
*3433 TAP_487
*3434 TAP_488
*3435 TAP_489
*3436 TAP_490
*3437 TAP_491
*3438 TAP_492
*3439 TAP_493
*3440 TAP_494
*3441 TAP_495
*3442 TAP_496
*3443 TAP_497
*3444 TAP_498
*3445 TAP_499
*3446 TAP_500
*3447 TAP_501
*3448 TAP_502
*3449 TAP_503
*3450 TAP_504
*3451 TAP_505
*3452 TAP_506
*3453 TAP_507
*3454 TAP_508
*3455 TAP_509
*3456 TAP_510
*3457 TAP_511
*3458 TAP_512
*3459 TAP_513
*3460 TAP_514
*3461 TAP_515
*3462 TAP_516
*3463 TAP_517
*3464 TAP_518
*3465 TAP_519
*3466 TAP_520
*3467 TAP_521
*3468 TAP_522
*3469 TAP_523
*3470 TAP_524
*3471 TAP_525
*3472 TAP_526
*3473 TAP_527
*3474 TAP_528
*3475 TAP_529
*3476 TAP_530
*3477 TAP_531
*3478 TAP_532
*3479 TAP_533
*3480 TAP_534
*3481 TAP_535
*3482 TAP_536
*3483 TAP_537
*3484 TAP_538
*3485 TAP_539
*3486 TAP_540
*3487 TAP_541
*3488 TAP_542
*3489 TAP_543
*3490 TAP_544
*3491 TAP_545
*3492 TAP_546
*3493 TAP_547
*3494 TAP_548
*3495 TAP_549
*3496 TAP_550
*3497 TAP_551
*3498 TAP_552
*3499 TAP_553
*3500 TAP_554
*3501 TAP_555
*3502 TAP_556
*3503 TAP_557
*3504 TAP_558
*3505 TAP_559
*3506 TAP_560
*3507 TAP_561
*3508 TAP_562
*3509 TAP_563
*3510 TAP_564
*3511 TAP_565
*3512 TAP_566
*3513 TAP_567
*3514 TAP_568
*3515 TAP_569
*3516 TAP_570
*3517 TAP_571
*3518 TAP_572
*3519 TAP_573
*3520 TAP_574
*3521 TAP_575
*3522 TAP_576
*3523 TAP_577
*3524 TAP_578
*3525 TAP_579
*3526 TAP_580
*3527 TAP_581
*3528 TAP_582
*3529 TAP_583
*3530 TAP_584
*3531 TAP_585
*3532 TAP_586
*3533 TAP_587
*3534 TAP_588
*3535 TAP_589
*3536 TAP_590
*3537 TAP_591
*3538 TAP_592
*3539 TAP_593
*3540 TAP_594
*3541 TAP_595
*3542 TAP_596
*3543 TAP_597
*3544 TAP_598
*3545 TAP_599
*3546 TAP_600
*3547 TAP_601
*3548 TAP_602
*3549 TAP_603
*3550 TAP_604
*3551 TAP_605
*3552 TAP_606
*3553 TAP_607
*3554 TAP_608
*3555 TAP_609
*3556 TAP_610
*3557 TAP_611
*3558 TAP_612
*3559 TAP_613
*3560 TAP_614
*3561 TAP_615
*3562 TAP_616
*3563 TAP_617
*3564 _250_
*3565 _251_
*3566 _252_
*3567 _253_
*3568 _254_
*3569 _255_
*3570 _256_
*3571 _257_
*3572 _258_
*3573 _259_
*3574 _260_
*3575 _261_
*3576 _262_
*3577 _263_
*3578 _264_
*3579 _265_
*3580 _266_
*3581 _267_
*3582 _268_
*3583 _269_
*3584 _270_
*3585 _271_
*3586 _272_
*3587 _273_
*3588 _274_
*3589 _275_
*3590 _276_
*3591 _277_
*3592 _278_
*3593 _279_
*3594 _280_
*3595 _281_
*3596 _282_
*3597 _283_
*3598 _284_
*3599 _285_
*3600 _286_
*3601 _287_
*3602 _288_
*3603 _289_
*3604 _290_
*3605 _291_
*3606 _292_
*3607 _293_
*3608 _294_
*3609 _295_
*3610 _296_
*3611 _297_
*3612 _298_
*3613 _299_
*3614 _300_
*3615 _301_
*3616 _302_
*3617 _303_
*3618 _304_
*3619 _305_
*3620 _306_
*3621 _307_
*3622 _308_
*3623 _309_
*3624 _310_
*3625 _311_
*3626 _312_
*3627 _313_
*3628 _314_
*3629 _315_
*3630 _316_
*3631 _317_
*3632 _318_
*3633 _319_
*3634 _320_
*3635 _321_
*3636 _322_
*3637 _323_
*3638 _324_
*3639 _325_
*3640 _326_
*3641 _327_
*3642 _328_
*3643 _329_
*3644 _330_
*3645 _331_
*3646 _332_
*3647 _333_
*3648 _334_
*3649 _335_
*3650 _336_
*3651 _337_
*3652 _338_
*3653 _339_
*3654 _340_
*3655 _341_
*3656 _342_
*3657 _343_
*3658 _344_
*3659 _345_
*3660 _346_
*3661 _347_
*3662 _348_
*3663 _349_
*3664 _350_
*3665 _351_
*3666 _352_
*3667 _353_
*3668 _354_
*3669 _355_
*3670 _356_
*3671 _357_
*3672 _358_
*3673 _359_
*3674 _360_
*3675 _361_
*3676 _362_
*3677 _363_
*3678 _364_
*3679 _365_
*3680 _366_
*3681 _367_
*3682 _368_
*3683 _369_
*3684 _370_
*3685 _371_
*3686 _372_
*3687 _373_
*3688 _374_
*3689 _375_
*3690 _376_
*3691 _377_
*3692 _378_
*3693 _379_
*3694 _380_
*3695 _381_
*3696 _382_
*3697 _383_
*3698 _384_
*3699 _385_
*3700 _386_
*3701 _387_
*3702 _388_
*3703 _389_
*3704 _390_
*3705 _391_
*3706 _392_
*3707 _393_
*3708 _394_
*3709 _395_
*3710 _396_
*3711 _397_
*3712 _398_
*3713 _399_
*3714 _400_
*3715 _401_
*3716 _402_
*3717 _403_
*3718 _404_
*3719 _405_
*3720 _406_
*3721 _407_
*3722 _408_
*3723 _409_
*3724 _410_
*3725 _411_
*3726 _412_
*3727 _413_
*3728 _414_
*3729 _415_
*3730 _416_
*3731 _417_
*3732 _418_
*3733 _419_
*3734 _420_
*3735 _421_
*3736 _422_
*3737 _423_
*3738 _424_
*3739 _425_
*3740 _426_
*3741 _427_
*3742 _428_
*3743 _429_
*3744 _430_
*3745 _431_
*3746 _432_
*3747 _433_
*3748 _434_
*3749 _435_
*3750 _436_
*3751 _437_
*3752 _438_
*3753 _439_
*3754 _440_
*3755 _441_
*3756 _442_
*3757 _443_
*3758 _444_
*3759 _445_
*3760 _446_
*3761 _447_
*3762 _448_
*3763 _449_
*3764 _450_
*3765 _451_
*3766 _452_
*3767 _453_
*3768 _454__1
*3769 _455__2
*3770 _456_
*3771 _457_
*3772 _458_
*3773 _459_
*3774 _460_
*3775 _461_
*3776 _462_
*3777 _463_
*3778 _464_
*3779 _465_
*3780 _466_
*3781 _467__3
*3782 _468__4
*3783 _469__5
*3784 _470__6
*3785 _471__7
*3786 _472__8
*3787 _473__9
*3788 _474__10
*3789 _475_
*3790 _476_
*3791 _477_
*3792 _478_
*3793 _479_
*3794 _480_
*3795 _481_
*3796 _482_
*3797 _483_
*3798 _484_
*3799 _485_
*3800 _486_
*3801 _487_
*3802 _488_
*3803 _489_
*3804 _490_
*3805 _491_
*3806 _492_
*3807 _493_
*3808 _494_
*3809 _495_
*3810 _496_
*3811 _497_
*3812 _498_
*3813 _499_
*3814 _500_
*3815 _501_
*3816 _502_
*3817 _503_
*3818 _504_
*3819 _505_
*3820 _506_
*3821 _507_
*3822 _508_
*3823 _509_
*3824 _510_
*3825 _511_
*3826 _512_
*3827 _513_
*3828 _514_
*3829 _515_
*3830 _516_
*3831 _517_
*3832 _518_
*3833 _519_
*3834 _520_
*3835 _521_
*3836 _522_
*3837 _523_
*3838 _524_
*3839 _525_
*3840 _526_
*3841 _527_
*3842 _528_
*3843 _529_
*3844 _530_
*3845 _531_
*3846 _532_
*3847 _533_
*3848 _534_
*3849 _535_
*3850 _536_
*3851 _537_
*3852 _538_
*3853 _539_
*3854 _540_
*3855 _541_
*3856 _542_
*3857 _543_
*3858 _544_
*3859 _545_
*3860 _546_
*3861 _547_
*3862 _548_
*3863 _549_
*3864 _550_
*3865 _551_
*3866 _552_
*3867 _553_
*3868 _554_
*3869 _555_
*3870 _556_
*3871 _557_
*3872 _558_
*3873 _559_
*3874 _560_
*3875 _561_
*3876 _562_
*3877 _563_
*3878 _564_
*3879 _565_
*3880 _566_
*3881 _567_
*3882 _568_
*3883 _569_
*3884 _570_
*3885 _571_
*3886 clkbuf_0_SCK
*3887 clkbuf_0__247_
*3888 clkbuf_1_0__f__247_
*3889 clkbuf_1_1__f__247_
*3890 clkbuf_2_0__f_SCK
*3891 clkbuf_2_1__f_SCK
*3892 clkbuf_2_2__f_SCK
*3893 clkbuf_2_3__f_SCK
*3894 u_amux

*PORTS
CSB I
RST I
SCK I
SDI I
SDO O
VDD I
VSS I
irq O
mask_rev[0] O
mask_rev[1] O
mask_rev[2] O
mask_rev[3] O
mask_rev_in[0] I
mask_rev_in[1] I
mask_rev_in[2] I
mask_rev_in[3] I
mfgr_id[0] O
mfgr_id[10] O
mfgr_id[11] O
mfgr_id[1] O
mfgr_id[2] O
mfgr_id[3] O
mfgr_id[4] O
mfgr_id[5] O
mfgr_id[6] O
mfgr_id[7] O
mfgr_id[8] O
mfgr_id[9] O
out O
pll_bias_ena O
pll_bypass O
pll_cp_ena O
pll_trim[0] O
pll_trim[1] O
pll_trim[2] O
pll_trim[3] O
pll_vco_ena O
prod_id[0] O
prod_id[1] O
prod_id[2] O
prod_id[3] O
prod_id[4] O
prod_id[5] O
prod_id[6] O
prod_id[7] O
reg_ena O
sdo_enb O
trap I
xtal_ena O

*D_NET *1 0.0185291
*CONN
*P CSB I
*I *3671:A I *D sky130_fd_sc_hd__buf_1
*CAP
1 CSB 0.00218598
2 *3671:A 0
3 *1:9 0.00617037
4 *1:7 0.00617037
5 *1:5 0.00218598
6 *1:5 *48:9 0.00181637
*RES
1 CSB *1:5 52.7321 
2 *1:5 *1:7 4.5 
3 *1:7 *1:9 102.804 
4 *1:9 *3671:A 9.3 
*END

*D_NET *2 0.021804
*CONN
*P RST I
*I *3813:A I *D sky130_fd_sc_hd__inv_2
*I *3790:A I *D sky130_fd_sc_hd__buf_1
*CAP
1 RST 0.00085844
2 *3813:A 9.89683e-05
3 *3790:A 0
4 *2:33 0.00215605
5 *2:13 0.0093139
6 *2:11 0.00811526
7 *3813:A *3767:A 4.33899e-05
8 *3813:A *289:12 5.20669e-05
9 *3813:A *294:25 0.000224315
10 *2:33 *3705:A 5.20669e-05
11 *2:33 *3714:A 0.000136628
12 *2:33 *3767:A 0.000457022
13 *2:33 *3830:CLK 7.1445e-05
14 *2:33 *3830:D 9.66665e-05
15 *2:33 *3887:A 2.65105e-05
16 *2:33 *289:12 4.00025e-05
17 *2:33 *294:44 4.13122e-06
18 *2:33 *323:14 5.71472e-05
*RES
1 RST *2:11 13.444 
2 *2:11 *2:13 83.2946 
3 *2:13 *2:33 42.9375 
4 *2:33 *3790:A 9.3 
5 *2:33 *3813:A 11.8893 
*END

*D_NET *3 0.0145725
*CONN
*P SCK I
*I *3886:A I *D sky130_fd_sc_hd__clkbuf_16
*CAP
1 SCK 0.00711645
2 *3886:A 0.00711645
3 *3886:A pll_bypass 0.00026905
4 *3886:A *3568:A0 8.23597e-06
5 *3886:A *3760:B2 4.84678e-05
6 *3886:A *188:48 1.3895e-05
*RES
1 SCK *3886:A 41.9669 
*END

*D_NET *4 0.0286631
*CONN
*P SDI I
*I *3752:A0 I *D sky130_fd_sc_hd__mux2_2
*I *3571:A1 I *D sky130_fd_sc_hd__mux2_2
*I *3738:A I *D sky130_fd_sc_hd__or2_2
*I *3659:A1 I *D sky130_fd_sc_hd__mux2_2
*I *3669:A0 I *D sky130_fd_sc_hd__mux2_2
*I *3608:A1 I *D sky130_fd_sc_hd__mux2_2
*I *3588:A1 I *D sky130_fd_sc_hd__mux2_2
*I *3581:A0 I *D sky130_fd_sc_hd__mux2_2
*I *3665:A1 I *D sky130_fd_sc_hd__mux2_2
*I *3576:A0 I *D sky130_fd_sc_hd__mux2_2
*CAP
1 SDI 0.00380413
2 *3752:A0 0
3 *3571:A1 2.00462e-05
4 *3738:A 0.00127764
5 *3659:A1 0
6 *3669:A0 0.000199135
7 *3608:A1 0.000279535
8 *3588:A1 0.00105068
9 *3581:A0 2.22847e-05
10 *3665:A1 0
11 *3576:A0 4.53682e-05
12 *4:169 0.00171481
13 *4:130 0.000822465
14 *4:111 0.000855915
15 *4:101 0.000822564
16 *4:71 0.00127883
17 *4:67 0.00105492
18 *4:58 0.00151793
19 *4:39 0.00172225
20 *4:35 0.00103878
21 *4:17 0.0042472
22 *3571:A1 *3571:S 1.02132e-05
23 *3576:A0 *3576:A1 6.05161e-06
24 *3576:A0 *3702:A 5.20669e-05
25 *3588:A1 *3588:S 5.60962e-05
26 *3588:A1 *49:32 4.57979e-05
27 *3588:A1 *286:27 0
28 *3608:A1 *3608:S 5.68722e-05
29 *3608:A1 *3763:A 0.000401232
30 *3608:A1 *286:14 0.000184745
31 *3669:A0 *3669:A1 0.000149466
32 *3669:A0 *3670:A 5.49489e-05
33 *3669:A0 *3674:A 0.000145489
34 *3669:A0 *338:55 0.00010872
35 *3738:A *3568:A0 0
36 *3738:A *3659:A0 1.21258e-05
37 *3738:A *3659:S 5.33433e-05
38 *3738:A *31:48 6.42242e-05
39 *3738:A *174:112 3.34295e-05
40 *3738:A *183:50 0.000194908
41 *4:17 *3823:CLK 2.89114e-05
42 *4:17 *3823:D 4.47048e-05
43 *4:17 *333:16 2.42054e-05
44 *4:35 *3592:A1 2.44318e-05
45 *4:35 *3750:A0 0.000525004
46 *4:35 *3752:S 0.000573555
47 *4:35 *3823:CLK 1.02132e-05
48 *4:39 irq 0.000165886
49 *4:39 *3577:A 0
50 *4:39 *3820:D 9.76123e-05
51 *4:39 *3821:D 6.97972e-05
52 *4:39 *8:18 9.35973e-05
53 *4:39 *165:16 0
54 *4:39 *267:30 0
55 *4:39 *329:27 2.84398e-05
56 *4:58 *3586:A 0.000279528
57 *4:58 *3891:A 0.000102207
58 *4:58 *165:16 0
59 *4:58 *267:30 0
60 *4:67 *3581:A1 0
61 *4:67 *3665:S 0.000104816
62 *4:67 *3838:RESET_B 0
63 *4:67 *290:8 0
64 *4:71 *3581:A1 1.13883e-05
65 *4:71 *3581:S 0.000314466
66 *4:101 *3571:S 0.000145256
67 *4:101 *3581:A1 0
68 *4:101 *286:14 7.58571e-05
69 *4:111 *3571:A0 9.77414e-05
70 *4:111 *3572:A 6.81704e-05
71 *4:111 *3717:D 0.000107277
72 *4:111 *149:14 0.000125731
73 *4:111 *151:6 0.000143729
74 *4:111 *153:10 0.000108061
75 *4:111 *267:30 0.000409889
76 *4:111 *286:14 9.41642e-05
77 *4:130 *3674:A 1.08359e-05
78 *4:130 *3675:A 8.00806e-05
79 *4:130 *3756:B1 1.46717e-05
80 *4:130 *147:14 0
81 *4:130 *267:30 0.000218734
82 *4:130 *309:18 2.90164e-05
83 *4:130 *337:43 3.34295e-05
84 *4:169 *3660:A0 0.00014802
85 *4:169 *3674:A 2.32591e-05
86 *4:169 *3731:B1 0.0001412
87 *4:169 *3792:A 0.000119859
88 *4:169 *3839:CLK 5.33005e-05
89 *4:169 *3839:D 6.18396e-05
90 *4:169 *308:12 0
91 *4:169 *308:25 0
92 *4:169 *309:18 0.000316538
93 *4:169 *337:43 5.46971e-05
94 *4:169 *338:55 7.87525e-05
*RES
1 SDI *4:17 49.6873 
2 *4:17 *4:35 19.4107 
3 *4:35 *4:39 16.7679 
4 *4:39 *3576:A0 14.7464 
5 *4:39 *4:58 23.8929 
6 *4:58 *3665:A1 13.8 
7 *4:58 *4:67 7.71429 
8 *4:67 *4:71 8.32143 
9 *4:71 *3581:A0 9.72857 
10 *4:71 *3588:A1 33.0321 
11 *4:67 *4:101 13.0893 
12 *4:101 *4:111 19.875 
13 *4:111 *3608:A1 16.8893 
14 *4:111 *4:130 8.57143 
15 *4:130 *3669:A0 18.8893 
16 *4:130 *4:169 33.3571 
17 *4:169 *3659:A1 9.3 
18 *4:169 *3738:A 34.0321 
19 *4:101 *3571:A1 9.72857 
20 *4:35 *3752:A0 9.3 
*END

*D_NET *5 0.0238579
*CONN
*P SDO O
*I *3682:A1 I *D sky130_fd_sc_hd__a22o_2
*I *3894:I0 I *D AMUX2_3V
*I *3836:Q O *D sky130_fd_sc_hd__dfrtp_2
*CAP
1 SDO 0.000229908
2 *3682:A1 0
3 *3894:I0 0.00303435
4 *3836:Q 6.62895e-05
5 *5:53 0.00323519
6 *5:51 0.00312521
7 *5:47 0.00224442
8 *5:16 0.00382583
9 *5:12 0.00117127
10 *5:10 0.00257057
11 *3894:I0 *3769:A 6.44158e-06
12 *3894:I0 *3833:CLK 9.90367e-05
13 *3894:I0 *3833:D 0.000207776
14 *5:10 *3755:A 5.10822e-05
15 *5:10 *163:10 0
16 *5:12 *3682:A2 3.02036e-05
17 *5:12 *3682:B1 9.70616e-05
18 *5:12 *3836:D 6.03685e-05
19 *5:12 *3836:RESET_B 5.68722e-05
20 *5:12 *228:131 4.64978e-05
21 *5:12 *228:142 0.000128258
22 *5:12 *237:16 2.47833e-05
23 *5:16 *3682:B1 3.08664e-05
24 *5:16 *3682:B2 9.60939e-05
25 *5:16 *3692:A1 0.000342477
26 *5:16 *3769:A 6.02753e-05
27 *5:16 *228:131 1.59373e-05
28 *5:16 *291:10 1.83136e-05
29 *5:16 *326:6 0.00014285
30 *5:47 *3610:A3 0.000196314
31 *5:47 *3618:B 0.000166872
32 *5:47 *3670:A 0
33 *5:47 *3755:A 0
34 *5:47 *3756:A2 0
35 *5:47 *3799:A 2.90427e-05
36 *5:47 *3800:A 0.000198698
37 *5:47 *3837:D 0.000125599
38 *5:47 *3837:RESET_B 4.88847e-05
39 *5:47 *3846:CLK 0
40 *5:47 *161:14 0.000173601
41 *5:47 *163:10 5.10822e-05
42 *5:47 *188:12 0.000385957
43 *5:47 *227:108 0.000731101
44 *5:47 *237:16 8.80919e-05
45 *5:47 *316:16 0.000101545
46 *5:47 *316:33 2.31833e-05
47 *5:51 *3799:A 7.57155e-05
48 *5:51 *3846:CLK 0
49 *5:51 *190:44 0
50 *5:53 *3799:A 0.000444018
51 *5:53 *3846:CLK 0
*RES
1 *3836:Q *5:10 19.6393 
2 *5:10 *5:12 7.51786 
3 *5:12 *5:16 14.1071 
4 *5:16 *3894:I0 45.3661 
5 *5:12 *3682:A1 9.3 
6 *5:10 *5:47 48.4018 
7 *5:47 *5:51 2.66071 
8 *5:51 *5:53 58.2321 
9 *5:53 SDO 5.75893 
*END

*D_NET *8 0.00761074
*CONN
*P irq O
*I *3719:A I *D sky130_fd_sc_hd__inv_2
*I *3576:A1 I *D sky130_fd_sc_hd__mux2_2
*I *3860:Q O *D sky130_fd_sc_hd__dfrtp_2
*CAP
1 irq 0.00295142
2 *3719:A 3.82418e-05
3 *3576:A1 0.000106329
4 *3860:Q 0.000125556
5 *8:18 0.000352372
6 *8:8 0.00328477
7 irq *3749:A 7.83587e-05
8 irq *3820:RESET_B 0
9 irq *267:30 0
10 irq *286:68 0
11 irq *329:10 7.6644e-05
12 irq *329:27 9.91086e-05
13 *3576:A1 *3576:S 3.67142e-05
14 *3576:A1 *3702:A 7.49387e-06
15 *8:18 *3749:A 5.83304e-05
16 *8:18 *3821:D 0.000129868
17 *8:18 *3821:RESET_B 0
18 *8:18 *267:30 0
19 *3576:A0 *3576:A1 6.05161e-06
20 *4:39 irq 0.000165886
21 *4:39 *8:18 9.35973e-05
*RES
1 *3860:Q *8:8 15.1571 
2 *8:8 irq 55.4643 
3 *8:8 *8:18 9.48214 
4 *8:18 *3576:A1 10.6571 
5 *8:18 *3719:A 10.0321 
*END

*D_NET *9 0.00114402
*CONN
*P mask_rev[0] O
*I *3882:X O *D sky130_fd_sc_hd__buf_2
*CAP
1 mask_rev[0] 0.00057201
2 *3882:X 0.00057201
*RES
1 *3882:X mask_rev[0] 24.8869 
*END

*D_NET *10 0.00144069
*CONN
*P mask_rev[1] O
*I *3883:X O *D sky130_fd_sc_hd__buf_2
*CAP
1 mask_rev[1] 0.000720347
2 *3883:X 0.000720347
*RES
1 *3883:X mask_rev[1] 25.7107 
*END

*D_NET *11 0.0157126
*CONN
*P mask_rev[2] O
*I *3884:X O *D sky130_fd_sc_hd__buf_2
*CAP
1 mask_rev[2] 0.00107193
2 *3884:X 0
3 *11:6 0.00785631
4 *11:4 0.00678438
5 mask_rev[2] *48:9 0
*RES
1 *3884:X *11:4 9.3 
2 *11:4 *11:6 77.75 
3 *11:6 mask_rev[2] 14.8592 
*END

*D_NET *12 0.00707758
*CONN
*P mask_rev[3] O
*I *3885:X O *D sky130_fd_sc_hd__buf_2
*CAP
1 mask_rev[3] 0.00306512
2 *3885:X 0.00306512
3 mask_rev[3] pll_trim[1] 0.000276033
4 mask_rev[3] *14:64 0.000631135
5 mask_rev[3] *16:26 4.01768e-05
*RES
1 *3885:X mask_rev[3] 49.9354 
*END

*D_NET *13 0.0395973
*CONN
*P mask_rev_in[0] I
*I *3882:A I *D sky130_fd_sc_hd__buf_2
*I *3698:A I *D sky130_fd_sc_hd__or2b_2
*CAP
1 mask_rev_in[0] 0.000358155
2 *3882:A 0
3 *3698:A 0
4 *13:48 0.00293394
5 *13:46 0.00359773
6 *13:42 0.00108726
7 *13:21 0.00319798
8 *13:15 0.00607517
9 *13:9 0.00875217
10 *13:7 0.00580965
11 *13:15 *14:13 0.000464797
12 *13:21 *3894:I1 0.000996417
13 *13:21 *3894:select 0.00142771
14 *13:21 *14:13 0.000227384
15 *13:21 *14:25 1.53494e-05
16 *13:21 *35:29 0.000150203
17 *13:21 *47:12 0
18 *13:42 *3691:B2 0
19 *13:42 *3697:A1 0.00031982
20 *13:42 *3703:C1 9.58126e-05
21 *13:42 *3707:A0 0.000223456
22 *13:42 *3707:A1 0.000136676
23 *13:42 *3713:S 6.8445e-06
24 *13:42 *3894:I1 5.47001e-05
25 *13:42 *14:56 0.000185785
26 *13:46 *3691:A1 0.00115304
27 *13:46 *3702:B 4.44173e-05
28 *13:46 *3714:A 0.000390561
29 *13:46 *32:29 8.98897e-05
30 *13:46 *32:33 0.00077255
31 *13:46 *37:18 0.00102982
*RES
1 mask_rev_in[0] *13:7 7.27679 
2 *13:7 *13:9 97.7232 
3 *13:9 *13:15 49.6161 
4 *13:15 *13:21 44.4196 
5 *13:21 *3698:A 9.3 
6 *13:21 *13:42 23.1964 
7 *13:42 *13:46 31.9464 
8 *13:46 *13:48 46.9464 
9 *13:48 *3882:A 9.3 
*END

*D_NET *14 0.0401523
*CONN
*P mask_rev_in[1] I
*I *3883:A I *D sky130_fd_sc_hd__buf_2
*I *3691:B2 I *D sky130_fd_sc_hd__a221o_2
*CAP
1 mask_rev_in[1] 0.00133161
2 *3883:A 0.000401501
3 *3691:B2 0.000356823
4 *14:64 0.00278999
5 *14:58 0.00528573
6 *14:56 0.00320396
7 *14:25 0.0025691
8 *14:13 0.00539642
9 *14:11 0.00482247
10 *3691:B2 *3691:A1 3.41517e-06
11 *3691:B2 *3691:B1 5.38444e-06
12 *3691:B2 *3691:C1 5.68713e-05
13 *3691:B2 *3703:A2 7.71819e-05
14 *3691:B2 *3769:A 3.99614e-06
15 *3691:B2 *176:16 6.28601e-05
16 *3691:B2 *230:32 1.85462e-05
17 *3691:B2 *232:65 0
18 *14:11 sdo_enb 0.000259997
19 *14:11 *29:11 0.00056896
20 *14:11 *48:9 0.000598424
21 *14:13 *3894:select 0.00110064
22 *14:13 *47:14 0.00764145
23 *14:25 *3701:A 0.000141729
24 *14:25 *3704:A2 0.000140856
25 *14:25 *3704:B1 2.87101e-05
26 *14:25 *3784:A 8.07313e-05
27 *14:25 *3894:select 0.000144555
28 *14:25 *228:45 0.000107233
29 *14:25 *230:42 4.11837e-05
30 *14:25 *230:58 0.000141484
31 *14:56 *3697:A1 2.41768e-05
32 *14:56 *3703:A2 0
33 *14:56 *3708:A1 0.000147718
34 *14:56 *3713:S 2.87025e-05
35 *14:58 *3697:A1 0.000394713
36 *14:58 *3709:A 0
37 *14:58 *3713:S 4.2313e-06
38 *14:58 *3830:CLK 2.34969e-05
39 *14:58 *3830:D 7.6997e-05
40 *14:58 *324:10 0
41 *14:64 *16:17 0.000359383
42 *14:64 *16:26 0.000186662
43 mask_rev[3] *14:64 0.000631135
44 *13:15 *14:13 0.000464797
45 *13:21 *14:13 0.000227384
46 *13:21 *14:25 1.53494e-05
47 *13:42 *3691:B2 0
48 *13:42 *14:56 0.000185785
*RES
1 mask_rev_in[1] *14:11 28.6947 
2 *14:11 *14:13 72.4107 
3 *14:13 *14:25 34.7857 
4 *14:25 *3691:B2 20.3134 
5 *14:25 *14:56 5.46429 
6 *14:56 *14:58 52.7946 
7 *14:58 *14:64 46.3304 
8 *14:64 *3883:A 15.7911 
*END

*D_NET *15 0.0190149
*CONN
*P mask_rev_in[2] I
*I *3884:A I *D sky130_fd_sc_hd__buf_2
*I *3687:A I *D sky130_fd_sc_hd__or2b_2
*CAP
1 mask_rev_in[2] 0.00401165
2 *3884:A 0
3 *3687:A 0.00203314
4 *15:24 0.00139409
5 *15:5 0.00743888
6 *3687:A *3692:A1 2.64912e-05
7 *3687:A *3692:A2 7.57312e-05
8 *3687:A *3693:A0 9.26887e-05
9 *3687:A *3693:A1 3.47956e-06
10 *3687:A *3693:S 9.93955e-05
11 *3687:A *3694:A 0.000271352
12 *3687:A *3695:A 2.59355e-05
13 *3687:A *234:45 6.05161e-06
14 *15:5 *35:31 0.000642003
15 *15:24 *35:31 0.002894
*RES
1 mask_rev_in[2] *15:5 76.1071 
2 *15:5 *3687:A 38.3 
3 *15:5 *15:24 42.1071 
4 *15:24 *3884:A 9.3 
*END

*D_NET *16 0.0125584
*CONN
*P mask_rev_in[3] I
*I *3679:B2 I *D sky130_fd_sc_hd__a221o_2
*I *3885:A I *D sky130_fd_sc_hd__buf_2
*CAP
1 mask_rev_in[3] 0.00074059
2 *3679:B2 8.41577e-05
3 *3885:A 0
4 *16:28 0.00219836
5 *16:26 0.00215648
6 *16:17 0.000782874
7 *3679:B2 *3679:A1 0.000198529
8 *3679:B2 *3679:C1 7.32182e-05
9 *3679:B2 *152:26 4.7168e-05
10 *16:28 *3715:A 0.000709089
11 *16:28 *3725:B1 0.000225307
12 *16:28 *3819:D 0
13 *16:28 *3857:SET_B 5.33978e-05
14 *16:28 *3860:D 0
15 *16:28 *46:10 0.00244633
16 *16:28 *46:26 0.000389854
17 *16:28 *46:47 0.00122501
18 *16:28 *165:16 0
19 *16:28 *176:87 0
20 *16:28 *237:16 0.000100823
21 *16:28 *289:29 0.000358387
22 *16:28 *294:66 0.000182561
23 *16:28 *294:70 0
24 mask_rev[3] *16:26 4.01768e-05
25 *14:64 *16:17 0.000359383
26 *14:64 *16:26 0.000186662
*RES
1 mask_rev_in[3] *16:17 21.0893 
2 *16:17 *3885:A 9.3 
3 *16:17 *16:26 6.26786 
4 *16:26 *16:28 60.2321 
5 *16:28 *3679:B2 16.6348 
*END

*D_NET *17 0.000963652
*CONN
*P mfgr_id[0] O
*I *3868:LO O *D sky130_fd_sc_hd__conb_1
*CAP
1 mfgr_id[0] 0.000481826
2 *3868:LO 0.000481826
*RES
1 *3868:LO mfgr_id[0] 23.1214 
*END

*D_NET *18 0.00138149
*CONN
*P mfgr_id[10] O
*I *3865:HI O *D sky130_fd_sc_hd__conb_1
*CAP
1 mfgr_id[10] 0.000690747
2 *3865:HI 0.000690747
*RES
1 *3865:HI mfgr_id[10] 26.3536 
*END

*D_NET *19 0.0012439
*CONN
*P mfgr_id[11] O
*I *3874:LO O *D sky130_fd_sc_hd__conb_1
*CAP
1 mfgr_id[11] 0.00062195
2 *3874:LO 0.00062195
3 mfgr_id[11] prod_id[5] 0
*RES
1 *3874:LO mfgr_id[11] 26.2817 
*END

*D_NET *20 0.00125003
*CONN
*P mfgr_id[1] O
*I *3861:HI O *D sky130_fd_sc_hd__conb_1
*CAP
1 mfgr_id[1] 0.000625013
2 *3861:HI 0.000625013
*RES
1 *3861:HI mfgr_id[1] 25.5321 
*END

*D_NET *21 0.00214591
*CONN
*P mfgr_id[2] O
*I *3862:HI O *D sky130_fd_sc_hd__conb_1
*CAP
1 mfgr_id[2] 0.00107296
2 *3862:HI 0.00107296
*RES
1 *3862:HI mfgr_id[2] 32.675 
*END

*D_NET *22 0.00144959
*CONN
*P mfgr_id[3] O
*I *3869:LO O *D sky130_fd_sc_hd__conb_1
*CAP
1 mfgr_id[3] 0.000724796
2 *3869:LO 0.000724796
*RES
1 *3869:LO mfgr_id[3] 26.9607 
*END

*D_NET *23 0.00107648
*CONN
*P mfgr_id[4] O
*I *3863:HI O *D sky130_fd_sc_hd__conb_1
*CAP
1 mfgr_id[4] 0.00053824
2 *3863:HI 0.00053824
*RES
1 *3863:HI mfgr_id[4] 24.3357 
*END

*D_NET *24 0.000842747
*CONN
*P mfgr_id[5] O
*I *3870:LO O *D sky130_fd_sc_hd__conb_1
*CAP
1 mfgr_id[5] 0.000421373
2 *3870:LO 0.000421373
*RES
1 *3870:LO mfgr_id[5] 18.4832 
*END

*D_NET *25 0.0008098
*CONN
*P mfgr_id[6] O
*I *3864:HI O *D sky130_fd_sc_hd__conb_1
*CAP
1 mfgr_id[6] 0.0004049
2 *3864:HI 0.0004049
*RES
1 *3864:HI mfgr_id[6] 21.5859 
*END

*D_NET *26 0.000889275
*CONN
*P mfgr_id[7] O
*I *3871:LO O *D sky130_fd_sc_hd__conb_1
*CAP
1 mfgr_id[7] 0.000444637
2 *3871:LO 0.000444637
3 mfgr_id[7] out 0
*RES
1 *3871:LO mfgr_id[7] 21.9947 
*END

*D_NET *27 0.00115228
*CONN
*P mfgr_id[8] O
*I *3872:LO O *D sky130_fd_sc_hd__conb_1
*CAP
1 mfgr_id[8] 0.000576139
2 *3872:LO 0.000576139
*RES
1 *3872:LO mfgr_id[8] 24.9429 
*END

*D_NET *28 0.000963652
*CONN
*P mfgr_id[9] O
*I *3873:LO O *D sky130_fd_sc_hd__conb_1
*CAP
1 mfgr_id[9] 0.000481826
2 *3873:LO 0.000481826
*RES
1 *3873:LO mfgr_id[9] 23.1214 
*END

*D_NET *29 0.0196676
*CONN
*P out O
*I *3894:out O *D AMUX2_3V
*CAP
1 out 0.0040778
2 *3894:out 0.00547152
3 *29:11 0.00954932
4 out pll_bias_ena 0
5 mfgr_id[7] out 0
6 *14:11 *29:11 0.00056896
*RES
1 *3894:out *29:11 30.2229 
2 *29:11 out 83.2411 
*END

*D_NET *30 0.000723861
*CONN
*P pll_bias_ena O
*I *3866:HI O *D sky130_fd_sc_hd__conb_1
*CAP
1 pll_bias_ena 0.00036193
2 *3866:HI 0.00036193
3 out pll_bias_ena 0
*RES
1 *3866:HI pll_bias_ena 21.9947 
*END

*D_NET *31 0.0152638
*CONN
*P pll_bypass O
*I *3581:A1 I *D sky130_fd_sc_hd__mux2_2
*I *3721:A1 I *D sky130_fd_sc_hd__a21o_2
*I *3859:Q O *D sky130_fd_sc_hd__dfrtp_2
*CAP
1 pll_bypass 0.00238398
2 *3581:A1 0.000304404
3 *3721:A1 0.000687854
4 *3859:Q 0.000406856
5 *31:48 0.0033886
6 *31:10 0.00159221
7 *31:6 0.00201143
8 pll_bypass *3636:A 7.6644e-05
9 pll_bypass *3636:B 2.28335e-05
10 pll_bypass *3649:A 8.66324e-05
11 pll_bypass *3736:B 6.87242e-05
12 pll_bypass *3827:D 0
13 pll_bypass *3841:CLK 5.35423e-05
14 pll_bypass *3842:D 0.000104974
15 pll_bypass *3843:D 0.000127029
16 pll_bypass *3844:CLK 6.5185e-05
17 pll_bypass *288:83 0.000116545
18 pll_bypass *297:66 0.000115931
19 pll_bypass *297:83 4.69289e-05
20 pll_bypass *311:31 6.5185e-05
21 pll_bypass *312:10 8.5896e-05
22 pll_bypass *312:16 7.50697e-05
23 *3581:A1 *3581:S 3.42509e-05
24 *3721:A1 *3580:A 3.05605e-05
25 *3721:A1 *3580:B 0.000117591
26 *3721:A1 *3581:S 0.000143375
27 *3721:A1 *3664:B 5.49544e-05
28 *3721:A1 *3665:S 3.78126e-05
29 *3721:A1 *3718:A2 0.000189047
30 *3721:A1 *3718:A3 9.6788e-05
31 *3721:A1 *3718:C1 1.84876e-05
32 *3721:A1 *3721:A2 5.52238e-05
33 *3721:A1 *3894:I1 1.74352e-05
34 *3721:A1 *49:32 0.000480526
35 *3721:A1 *342:6 2.43587e-05
36 *3721:A1 *342:22 2.20422e-05
37 *31:6 *49:32 5.19035e-05
38 *31:10 *3582:A 3.67142e-05
39 *31:10 *3859:CLK 9.93955e-05
40 *31:10 *3859:D 7.92229e-06
41 *31:48 pll_trim[0] 0.00074863
42 *31:48 *3736:B 0.000120282
43 *31:48 *3760:B1 0.000170654
44 *31:48 *3762:A1 0.000129026
45 *31:48 *3814:D 5.72447e-05
46 *31:48 *174:112 7.76647e-05
47 *31:48 *270:25 5.36717e-05
48 *31:48 *270:42 1.50087e-05
49 *31:48 *284:8 0.00014209
50 *31:48 *338:41 0
51 *3738:A *31:48 6.42242e-05
52 *3886:A pll_bypass 0.00026905
53 *4:67 *3581:A1 0
54 *4:71 *3581:A1 1.13883e-05
55 *4:101 *3581:A1 0
*RES
1 *3859:Q *31:6 13.9429 
2 *31:6 *31:10 7.53571 
3 *31:10 *3721:A1 33.425 
4 *31:10 *3581:A1 22.5143 
5 *31:6 *31:48 29.5625 
6 *31:48 pll_bypass 33.0652 
*END

*D_NET *32 0.0235935
*CONN
*P pll_cp_ena O
*I *3594:A0 I *D sky130_fd_sc_hd__mux2_2
*I *3697:A1 I *D sky130_fd_sc_hd__a221o_2
*I *3855:Q O *D sky130_fd_sc_hd__dfstp_2
*CAP
1 pll_cp_ena 0.000701559
2 *3594:A0 0.000498703
3 *3697:A1 0.000888476
4 *3855:Q 0
5 *32:35 0.00293511
6 *32:33 0.00391687
7 *32:29 0.00227648
8 *32:4 0.000982935
9 *3594:A0 *3595:A 0.000271026
10 *3697:A1 *3691:A1 0
11 *3697:A1 *3699:A3 0
12 *3697:A1 *3703:C1 0.000150618
13 *3697:A1 *3710:A 6.68892e-05
14 *3697:A1 *3714:A 0.000141503
15 *3697:A1 *3781:A 0
16 *3697:A1 *3830:D 0.000114095
17 *3697:A1 *3830:RESET_B 4.52695e-05
18 *32:33 *3856:D 5.48581e-05
19 *32:33 *3857:CLK 0
20 *32:33 *37:18 0.000703688
21 *32:35 reg_ena 0.00105131
22 *32:35 *37:20 0.007193
23 *13:42 *3697:A1 0.00031982
24 *13:46 *32:29 8.98897e-05
25 *13:46 *32:33 0.00077255
26 *14:56 *3697:A1 2.41768e-05
27 *14:58 *3697:A1 0.000394713
*RES
1 *3855:Q *32:4 9.3 
2 *32:4 *3697:A1 36.5321 
3 *32:4 *32:29 6.75 
4 *32:29 *32:33 46.5179 
5 *32:33 *32:35 69.125 
6 *32:35 pll_cp_ena 17.9286 
7 *32:29 *3594:A0 21.7286 
*END

*D_NET *33 0.0109981
*CONN
*P pll_trim[0] O
*I *3723:A I *D sky130_fd_sc_hd__inv_2
*I *3602:A0 I *D sky130_fd_sc_hd__mux2_2
*I *3851:Q O *D sky130_fd_sc_hd__dfrtp_2
*CAP
1 pll_trim[0] 0.00236869
2 *3723:A 0
3 *3602:A0 0.000287127
4 *3851:Q 0.000862443
5 *33:16 0.00052456
6 *33:10 0.00346857
7 pll_trim[0] *3620:C_N 2.02934e-05
8 pll_trim[0] *3623:A2 0.000185297
9 pll_trim[0] *3739:A2 5.71743e-05
10 pll_trim[0] *3760:B1 0.000170654
11 pll_trim[0] *3765:A 0
12 pll_trim[0] *3814:CLK 6.82922e-05
13 pll_trim[0] *3814:SET_B 0
14 pll_trim[0] *186:12 0.000174805
15 pll_trim[0] *270:25 1.94945e-05
16 pll_trim[0] *284:8 0.00015234
17 pll_trim[0] *286:27 0.000768608
18 pll_trim[0] *286:138 0.000193592
19 pll_trim[0] *289:93 0
20 pll_trim[0] *295:99 0
21 pll_trim[0] *338:14 0
22 *3602:A0 *3702:A 5.49544e-05
23 *3602:A0 *3724:A1 2.06112e-05
24 *3602:A0 *165:72 7.20217e-06
25 *3602:A0 *165:85 3.08664e-05
26 *3602:A0 *289:46 5.58941e-05
27 *3602:A0 *289:76 0.000270943
28 *3602:A0 *289:93 5.06736e-05
29 *3602:A0 *295:66 0
30 *33:10 *3851:D 4.64978e-05
31 *33:10 *286:27 0.000151333
32 *33:10 *289:93 0
33 *33:10 *295:10 0.000138605
34 *33:16 *3791:A 3.08382e-06
35 *33:16 *3853:CLK 6.22801e-05
36 *33:16 *289:93 3.45453e-05
37 *31:48 pll_trim[0] 0.00074863
*RES
1 *3851:Q *33:10 24.9071 
2 *33:10 *33:16 8.75 
3 *33:16 *3602:A0 24.4607 
4 *33:16 *3723:A 9.3 
5 *33:10 pll_trim[0] 30.899 
*END

*D_NET *34 0.0139725
*CONN
*P pll_trim[1] O
*I *3600:A0 I *D sky130_fd_sc_hd__mux2_2
*I *3711:A1 I *D sky130_fd_sc_hd__a211o_2
*I *3852:Q O *D sky130_fd_sc_hd__dfrtp_2
*CAP
1 pll_trim[1] 0.00252016
2 *3600:A0 2.51027e-05
3 *3711:A1 0
4 *3852:Q 0
5 *34:46 0.002662
6 *34:30 0.0018706
7 *34:12 0.00240122
8 *34:4 0.000647358
9 pll_trim[1] *289:46 0.000128868
10 *3600:A0 *165:55 2.89114e-05
11 *34:12 *3600:A1 2.8266e-06
12 *34:12 *3601:A 0
13 *34:12 *3823:CLK 0
14 *34:12 *3823:D 0
15 *34:12 *3852:RESET_B 3.58979e-05
16 *34:12 *289:42 2.53402e-05
17 *34:30 *3592:S 8.07951e-05
18 *34:30 *3594:S 0.000169405
19 *34:30 *3601:A 9.0471e-05
20 *34:30 *3724:B1 0.000236178
21 *34:30 *3748:A0 9.66977e-05
22 *34:30 *3820:CLK 0.000144233
23 *34:30 *3820:D 0.000140714
24 *34:30 *3829:D 3.25078e-05
25 *34:30 *3829:RESET_B 5.2823e-05
26 *34:30 *3894:I1 0.000148114
27 *34:30 *46:47 0.000827595
28 *34:30 *165:22 4.33174e-05
29 *34:30 *165:55 0.000577046
30 *34:30 *237:16 5.33005e-05
31 *34:30 *237:29 7.33985e-05
32 *34:30 *289:12 0.000363473
33 *34:30 *289:29 0.000175892
34 *34:46 *3852:RESET_B 4.22531e-05
35 mask_rev[3] pll_trim[1] 0.000276033
*RES
1 *3852:Q *34:4 9.3 
2 *34:4 *34:12 16.1786 
3 *34:12 *34:30 48.3616 
4 *34:30 *3711:A1 9.3 
5 *34:12 *3600:A0 9.83571 
6 *34:4 *34:46 6.26786 
7 *34:46 pll_trim[1] 47.2679 
*END

*D_NET *35 0.0307167
*CONN
*P pll_trim[2] O
*I *3706:A1 I *D sky130_fd_sc_hd__a221o_2
*I *3598:A0 I *D sky130_fd_sc_hd__mux2_2
*I *3853:Q O *D sky130_fd_sc_hd__dfrtp_2
*CAP
1 pll_trim[2] 0.00080981
2 *3706:A1 8.98085e-05
3 *3598:A0 0.000125668
4 *3853:Q 0
5 *35:31 0.00487353
6 *35:29 0.0060956
7 *35:25 0.00607236
8 *35:4 0.00407634
9 *3598:A0 *3598:A1 0.000118748
10 *3598:A0 *3598:S 6.05161e-06
11 *3598:A0 *3599:A 7.8195e-05
12 *3598:A0 *3853:RESET_B 1.17091e-05
13 *3706:A1 *3697:B2 2.93936e-05
14 *3706:A1 *3700:B2 6.25005e-05
15 *3706:A1 *3706:A2 3.3757e-05
16 *3706:A1 *3887:A 1.26641e-05
17 *3706:A1 *163:71 2.95642e-05
18 *3706:A1 *163:73 5.33005e-05
19 *3706:A1 *237:31 0.000135028
20 *35:25 *3724:A1 0.000289412
21 *35:25 *3853:RESET_B 2.74273e-05
22 *35:25 *3858:D 0
23 *35:25 *46:47 0.000948914
24 *35:25 *49:32 0.000131204
25 *35:25 *286:27 0
26 *35:25 *342:22 0.000198113
27 *35:29 *3781:A 0
28 *35:29 *3894:select 0.00258771
29 *35:29 *46:47 0.000133734
30 *13:21 *35:29 0.000150203
31 *15:5 *35:31 0.000642003
32 *15:24 *35:31 0.002894
*RES
1 *3853:Q *35:4 9.3 
2 *35:4 *3598:A0 12.7286 
3 *35:4 *35:25 17.766 
4 *35:25 *35:29 7.85307 
5 *35:29 *35:31 88.9643 
6 *35:31 pll_trim[2] 15.5804 
7 *35:25 *3706:A1 19.4511 
*END

*D_NET *36 0.0121481
*CONN
*P pll_trim[3] O
*I *3702:A I *D sky130_fd_sc_hd__and3_2
*I *3596:A0 I *D sky130_fd_sc_hd__mux2_2
*I *3854:Q O *D sky130_fd_sc_hd__dfrtp_2
*CAP
1 pll_trim[3] 0.000837149
2 *3702:A 0.00184862
3 *3596:A0 0
4 *3854:Q 0.000469765
5 *36:41 0.00210411
6 *36:16 0.00119374
7 *36:8 0.00108185
8 pll_trim[3] *3596:S 2.61337e-05
9 *3702:A *3576:S 0.000315152
10 *3702:A *3577:A 2.17258e-05
11 *3702:A *3702:C 4.30382e-05
12 *3702:A *3712:A1 7.57312e-05
13 *3702:A *3712:A2 0.000110585
14 *3702:A *3712:B1 5.49489e-05
15 *3702:A *3713:A1 0.000228334
16 *3702:A *3715:A 0.000308985
17 *3702:A *3720:A1 0.000226507
18 *3702:A *3747:A 7.57394e-05
19 *3702:A *3822:D 1.07719e-05
20 *3702:A *3829:RESET_B 5.68722e-05
21 *3702:A *165:72 0.0001252
22 *3702:A *165:85 4.42575e-05
23 *3702:A *289:54 0.000269378
24 *36:16 *3596:A1 9.87617e-05
25 *36:16 *3596:S 5.70784e-05
26 *36:16 *3597:A 4.43256e-05
27 *36:16 *3598:A1 0
28 *36:16 *3807:A 0.000271791
29 *36:16 *3854:D 0
30 *36:41 *3598:A1 0
31 *36:41 *3603:A 0.00016078
32 *36:41 *3807:A 9.76123e-05
33 *36:41 *165:85 0.000963882
34 *36:41 *289:54 0.000810761
35 *3576:A0 *3702:A 5.20669e-05
36 *3576:A1 *3702:A 7.49387e-06
37 *3602:A0 *3702:A 5.49544e-05
*RES
1 *3854:Q *36:8 18.8536 
2 *36:8 *36:16 11.6786 
3 *36:16 pll_trim[3] 14.9357 
4 *36:16 *3596:A0 9.3 
5 *36:8 *36:41 16.0357 
6 *36:41 *3702:A 44.55 
*END

*D_NET *37 0.0290528
*CONN
*P pll_vco_ena O
*I *3592:A0 I *D sky130_fd_sc_hd__mux2_2
*I *3691:A1 I *D sky130_fd_sc_hd__a221o_2
*I *3856:Q O *D sky130_fd_sc_hd__dfstp_2
*CAP
1 pll_vco_ena 0.000632925
2 *3592:A0 0
3 *3691:A1 0.00109267
4 *3856:Q 0.000149607
5 *37:20 0.00555002
6 *37:18 0.00643363
7 *37:14 0.00312351
8 *37:10 0.000663917
9 *3691:A1 *3686:A1 0.000110694
10 *3691:A1 *3691:A2 6.28083e-05
11 *3691:A1 *3691:B1 2.3906e-05
12 *3691:A1 *3699:A2 0.000199706
13 *3691:A1 *3699:A3 0.000147718
14 *3691:A1 *3700:B2 1.06972e-05
15 *3691:A1 *3702:B 6.6158e-05
16 *3691:A1 *3714:A 2.08215e-05
17 *3691:A1 *3781:A 0.000199965
18 *3691:A1 *3830:RESET_B 8.24538e-05
19 *3691:A1 *232:35 8.22337e-06
20 *3691:A1 *232:44 1.47972e-05
21 *3691:A1 *232:65 0
22 *37:14 *3591:A 0.000228508
23 *37:14 *3593:A 9.46571e-05
24 *37:14 *3856:D 5.24506e-05
25 *3691:B2 *3691:A1 3.41517e-06
26 *3697:A1 *3691:A1 0
27 *13:46 *3691:A1 0.00115304
28 *13:46 *37:18 0.00102982
29 *32:33 *37:18 0.000703688
30 *32:35 *37:20 0.007193
*RES
1 *3856:Q *37:10 20.55 
2 *37:10 *37:14 13.25 
3 *37:14 *37:18 41.9643 
4 *37:18 *37:20 95.8214 
5 *37:20 pll_vco_ena 16.5536 
6 *37:14 *3691:A1 38.5321 
7 *37:10 *3592:A0 9.3 
*END

*D_NET *38 0.00137585
*CONN
*P prod_id[0] O
*I *3875:LO O *D sky130_fd_sc_hd__conb_1
*CAP
1 prod_id[0] 0.000687926
2 *3875:LO 0.000687926
*RES
1 *3875:LO prod_id[0] 27.425 
*END

*D_NET *39 0.000776117
*CONN
*P prod_id[1] O
*I *3867:HI O *D sky130_fd_sc_hd__conb_1
*CAP
1 prod_id[1] 0.000388058
2 *3867:HI 0.000388058
*RES
1 *3867:HI prod_id[1] 22.6018 
*END

*D_NET *40 0.000844676
*CONN
*P prod_id[2] O
*I *3876:LO O *D sky130_fd_sc_hd__conb_1
*CAP
1 prod_id[2] 0.000422338
2 *3876:LO 0.000422338
3 prod_id[2] *165:98 0
*RES
1 *3876:LO prod_id[2] 18.4832 
*END

*D_NET *41 0.000963652
*CONN
*P prod_id[3] O
*I *3877:LO O *D sky130_fd_sc_hd__conb_1
*CAP
1 prod_id[3] 0.000481826
2 *3877:LO 0.000481826
*RES
1 *3877:LO prod_id[3] 23.1214 
*END

*D_NET *42 0.000731781
*CONN
*P prod_id[4] O
*I *3878:LO O *D sky130_fd_sc_hd__conb_1
*CAP
1 prod_id[4] 0.00036589
2 *3878:LO 0.00036589
*RES
1 *3878:LO prod_id[4] 21.9947 
*END

*D_NET *43 0.00113417
*CONN
*P prod_id[5] O
*I *3879:LO O *D sky130_fd_sc_hd__conb_1
*CAP
1 prod_id[5] 0.000567084
2 *3879:LO 0.000567084
3 mfgr_id[11] prod_id[5] 0
*RES
1 *3879:LO prod_id[5] 24.9429 
*END

*D_NET *44 0.00113417
*CONN
*P prod_id[6] O
*I *3880:LO O *D sky130_fd_sc_hd__conb_1
*CAP
1 prod_id[6] 0.000567084
2 *3880:LO 0.000567084
*RES
1 *3880:LO prod_id[6] 24.9429 
*END

*D_NET *45 0.00113417
*CONN
*P prod_id[7] O
*I *3881:LO O *D sky130_fd_sc_hd__conb_1
*CAP
1 prod_id[7] 0.000567084
2 *3881:LO 0.000567084
*RES
1 *3881:LO prod_id[7] 24.9429 
*END

*D_NET *46 0.0278004
*CONN
*P reg_ena O
*I *3686:A1 I *D sky130_fd_sc_hd__a221o_2
*I *3894:select I *D AMUX2_3V
*I *3590:A0 I *D sky130_fd_sc_hd__mux2_2
*I *3857:Q O *D sky130_fd_sc_hd__dfstp_2
*CAP
1 reg_ena 0.00169564
2 *3686:A1 6.40204e-05
3 *3894:select 0.00246105
4 *3590:A0 0.000222873
5 *3857:Q 0
6 *46:47 0.00380546
7 *46:26 0.00172049
8 *46:10 0.00280599
9 *46:6 0.00132758
10 *3590:A0 *3591:A 1.58163e-05
11 *3590:A0 *3592:A1 4.42152e-05
12 *3686:A1 *3686:B1 7.6644e-05
13 *3686:A1 *3700:B2 2.71732e-05
14 *3686:A1 *232:65 0
15 *3894:select *3691:A2 3.53662e-05
16 *3894:select *3888:A 0
17 *3894:select *3894:I1 0.000401597
18 *3894:select *47:12 0
19 *46:47 *3592:S 0.000216304
20 *46:47 *3594:S 0.000177948
21 *46:47 *3691:A2 6.84159e-05
22 *46:47 *3724:B1 8.44271e-06
23 *46:47 *3725:B1 0.000223585
24 *46:47 *176:87 7.69776e-06
25 *3691:A1 *3686:A1 0.000110694
26 *13:21 *3894:select 0.00142771
27 *14:13 *3894:select 0.00110064
28 *14:25 *3894:select 0.000144555
29 *16:28 *46:10 0.00244633
30 *16:28 *46:26 0.000389854
31 *16:28 *46:47 0.00122501
32 *32:35 reg_ena 0.00105131
33 *34:30 *46:47 0.000827595
34 *35:25 *46:47 0.000948914
35 *35:29 *3894:select 0.00258771
36 *35:29 *46:47 0.000133734
*RES
1 *3857:Q *46:6 13.8 
2 *46:6 *46:10 35.2857 
3 *46:10 reg_ena 37.6607 
4 *46:6 *46:26 4.98214 
5 *46:26 *3590:A0 16.7107 
6 *46:26 *46:47 26.4634 
7 *46:47 *3894:select 41.4436 
8 *46:47 *3686:A1 19.0046 
*END

*D_NET *47 0.0172881
*CONN
*P sdo_enb O
*I *3818:Q O *D sky130_fd_sc_hd__dfstp_2
*CAP
1 sdo_enb 0.000913729
2 *3818:Q 0.00127524
3 *47:14 0.00341809
4 *47:12 0.0037796
5 *3894:select *47:12 0
6 *13:21 *47:12 0
7 *14:11 sdo_enb 0.000259997
8 *14:13 *47:14 0.00764145
*RES
1 *3818:Q *47:12 38.1036 
2 *47:12 *47:14 72.4107 
3 *47:14 sdo_enb 13.7476 
*END

*D_NET *48 0.0280491
*CONN
*P trap I
*I *3717:A I *D sky130_fd_sc_hd__and4_2
*CAP
1 trap 0.00085478
2 *3717:A 0.00115506
3 *48:13 0.0076526
4 *48:11 0.00649754
5 *48:9 0.00377175
6 *48:7 0.00462653
7 *3717:A *3583:A 4.96113e-05
8 *3717:A *3584:C 0
9 *3717:A *3755:A 0.000271345
10 *3717:A *3788:A 0.000296285
11 *3717:A *161:14 0.000120604
12 *3717:A *293:21 0.000107309
13 *48:13 *3684:A 2.89016e-05
14 *48:13 *3684:B 9.93135e-05
15 *48:13 *3689:B1 2.0311e-05
16 *48:13 *293:21 8.23481e-05
17 mask_rev[2] *48:9 0
18 *1:5 *48:9 0.00181637
19 *14:11 *48:9 0.000598424
*RES
1 trap *48:7 5.63153 
2 *48:7 *48:9 83.4554 
3 *48:9 *48:11 4.5 
4 *48:11 *48:13 104.036 
5 *48:13 *3717:A 30.8179 
*END

*D_NET *49 0.0100724
*CONN
*P xtal_ena O
*I *3588:A0 I *D sky130_fd_sc_hd__mux2_2
*I *3679:A1 I *D sky130_fd_sc_hd__a221o_2
*I *3858:Q O *D sky130_fd_sc_hd__dfstp_2
*CAP
1 xtal_ena 0.000555015
2 *3588:A0 0
3 *3679:A1 0.000483597
4 *3858:Q 0.000169761
5 *49:32 0.00295898
6 *49:14 0.00278021
7 *49:10 0.0010296
8 *3679:A1 *152:26 0.000105044
9 *49:10 *3858:SET_B 0
10 *49:14 *3588:S 9.21933e-05
11 *49:14 *3589:A 0.000180014
12 *49:14 *3811:A 2.44318e-05
13 *49:14 *3858:D 1.37049e-05
14 *49:32 *3588:S 3.08664e-05
15 *49:32 *3715:A 0
16 *49:32 *3718:A3 3.08664e-05
17 *49:32 *3721:B1 0.0001475
18 *49:32 *3838:CLK 0.00012306
19 *49:32 *3838:D 5.49489e-05
20 *49:32 *3858:CLK 2.58821e-05
21 *49:32 *3859:RESET_B 3.69697e-05
22 *49:32 *3894:I1 4.1656e-05
23 *49:32 *163:10 3.42301e-05
24 *49:32 *286:27 7.83659e-05
25 *49:32 *289:93 0.000141985
26 *49:32 *342:6 2.56014e-05
27 *3588:A1 *49:32 4.57979e-05
28 *3679:B2 *3679:A1 0.000198529
29 *3721:A1 *49:32 0.000480526
30 *31:6 *49:32 5.19035e-05
31 *35:25 *49:32 0.000131204
*RES
1 *3858:Q *49:10 16.5857 
2 *49:10 *49:14 10.7857 
3 *49:14 *49:32 46.5536 
4 *49:32 *3679:A1 20.1036 
5 *49:14 *3588:A0 9.3 
6 *49:10 xtal_ena 10.1794 
*END

*D_NET *50 0.00136088
*CONN
*I *3814:D I *D sky130_fd_sc_hd__dfstp_2
*I *3762:Y O *D sky130_fd_sc_hd__o22ai_2
*CAP
1 *3814:D 0.000277727
2 *3762:Y 0.000277727
3 *3814:D *3760:A2 0.000119738
4 *3814:D *3760:B1 0.000183713
5 *3814:D *337:10 0.000420853
6 *3814:D *338:41 2.38739e-05
7 *31:48 *3814:D 5.72447e-05
*RES
1 *3762:Y *3814:D 35.0464 
*END

*D_NET *51 0.000295944
*CONN
*I *3815:D I *D sky130_fd_sc_hd__dfrtp_2
*I *3760:X O *D sky130_fd_sc_hd__a22o_2
*CAP
1 *3815:D 0.000119416
2 *3760:X 0.000119416
3 *3815:D *3815:CLK 5.71124e-05
*RES
1 *3760:X *3815:D 29.85 
*END

*D_NET *52 0.000412989
*CONN
*I *3816:D I *D sky130_fd_sc_hd__dfrtp_2
*I *3758:X O *D sky130_fd_sc_hd__buf_1
*CAP
1 *3816:D 0.000206494
2 *3758:X 0.000206494
3 *3816:D *3815:CLK 0
4 *3816:D *3816:CLK 0
5 *3816:D *286:14 0
6 *3816:D *295:110 0
*RES
1 *3758:X *3816:D 30.8321 
*END

*D_NET *53 0.00847912
*CONN
*I *3818:D I *D sky130_fd_sc_hd__dfstp_2
*I *3682:A2 I *D sky130_fd_sc_hd__a22o_2
*I *3688:B1 I *D sky130_fd_sc_hd__a31o_2
*I *3724:C1 I *D sky130_fd_sc_hd__a211o_2
*I *3725:B2 I *D sky130_fd_sc_hd__a2bb2o_2
*I *3699:B1 I *D sky130_fd_sc_hd__a31o_2
*I *3703:B1 I *D sky130_fd_sc_hd__a211o_2
*I *3676:Y O *D sky130_fd_sc_hd__inv_2
*CAP
1 *3818:D 0.00048347
2 *3682:A2 9.28776e-06
3 *3688:B1 0.000335004
4 *3724:C1 4.47456e-05
5 *3725:B2 0
6 *3699:B1 5.28604e-05
7 *3703:B1 0.000154244
8 *3676:Y 0
9 *53:66 0.000790283
10 *53:46 0.000294366
11 *53:37 0.000340551
12 *53:35 0.00112554
13 *53:12 0.00110476
14 *53:6 0.000792504
15 *3682:A2 *3682:B1 3.04242e-05
16 *3688:B1 *3688:A2 0
17 *3688:B1 *3688:A3 0
18 *3688:B1 *3836:CLK 0.000115183
19 *3688:B1 *3836:D 0.000100639
20 *3688:B1 *228:131 5.00645e-05
21 *3699:B1 *3781:A 0.000143651
22 *3699:B1 *3829:CLK 9.83442e-05
23 *3703:B1 *3703:A1 4.28087e-05
24 *3703:B1 *3708:A0 7.83587e-05
25 *3703:B1 *3713:S 2.34204e-05
26 *3703:B1 *324:10 1.02504e-05
27 *3724:C1 *3724:B1 5.34688e-05
28 *3724:C1 *3725:A2_N 0.000101116
29 *3818:D *3696:A 4.12252e-05
30 *3818:D *3700:B1 7.6644e-05
31 *3818:D *3818:CLK 0.000260019
32 *3818:D *228:26 0
33 *3818:D *230:38 0.000132632
34 *53:12 *3696:A 1.00399e-05
35 *53:12 *3704:B1 0.000181796
36 *53:12 *3709:A 2.15363e-05
37 *53:12 *228:45 9.25014e-06
38 *53:12 *230:38 1.99099e-05
39 *53:12 *230:58 3.2687e-05
40 *53:12 *325:14 2.15846e-05
41 *53:35 *3699:A3 0.000141461
42 *53:35 *3708:A1 0.000139202
43 *53:35 *3713:S 2.12005e-05
44 *53:35 *3781:A 0.000351951
45 *53:35 *230:58 5.50313e-05
46 *53:46 *3724:B1 9.41642e-05
47 *53:46 *3725:A1_N 1.99262e-05
48 *53:46 *3725:A2_N 6.26177e-05
49 *53:46 *3829:D 0.000140865
50 *53:66 *3682:B1 3.08032e-05
51 *53:66 *3688:A2 0
52 *53:66 *3706:C1 5.25862e-06
53 *53:66 *3712:B1 0.00012123
54 *53:66 *3887:A 0
55 *53:66 *152:45 0
56 *53:66 *163:56 8.25365e-05
57 *53:66 *232:85 0
58 *53:66 *234:45 0
59 *5:12 *3682:A2 3.02036e-05
*RES
1 *3676:Y *53:6 13.8 
2 *53:6 *53:12 8.83929 
3 *53:12 *3703:B1 21.0143 
4 *53:12 *53:35 12.0893 
5 *53:35 *53:37 0.732143 
6 *53:37 *3699:B1 11.0679 
7 *53:37 *53:46 5.05357 
8 *53:46 *3725:B2 9.3 
9 *53:46 *3724:C1 10.675 
10 *53:35 *53:66 12.4464 
11 *53:66 *3688:B1 20.5143 
12 *53:66 *3682:A2 14.1036 
13 *53:6 *3818:D 22.2464 
*END

*D_NET *54 0.00105743
*CONN
*I *3814:SET_B I *D sky130_fd_sc_hd__dfstp_2
*I *3764:Y O *D sky130_fd_sc_hd__inv_2
*CAP
1 *3814:SET_B 0.000395858
2 *3764:Y 0.000395858
3 *3814:SET_B *3765:A 8.60574e-05
4 *3814:SET_B *338:14 0.000179656
5 pll_trim[0] *3814:SET_B 0
*RES
1 *3764:Y *3814:SET_B 25.1571 
*END

*D_NET *55 0.000471098
*CONN
*I *3815:RESET_B I *D sky130_fd_sc_hd__dfrtp_2
*I *3765:Y O *D sky130_fd_sc_hd__inv_2
*CAP
1 *3815:RESET_B 0.000144035
2 *3765:Y 0.000144035
3 *3815:RESET_B *3765:A 0.000183028
*RES
1 *3765:Y *3815:RESET_B 11.8268 
*END

*D_NET *56 0.000367047
*CONN
*I *3816:RESET_B I *D sky130_fd_sc_hd__dfrtp_2
*I *3766:Y O *D sky130_fd_sc_hd__inv_2
*CAP
1 *3816:RESET_B 0.00016759
2 *3766:Y 0.00016759
3 *3816:RESET_B *286:14 3.18676e-05
4 *3816:RESET_B *295:110 0
*RES
1 *3766:Y *3816:RESET_B 21.0857 
*END

*D_NET *57 0.000172318
*CONN
*I *3817:RESET_B I *D sky130_fd_sc_hd__dfrtp_2
*I *3755:Y O *D sky130_fd_sc_hd__inv_2
*CAP
1 *3817:RESET_B 5.83118e-05
2 *3755:Y 5.83118e-05
3 *3817:RESET_B *176:83 5.56943e-05
*RES
1 *3755:Y *3817:RESET_B 19.6393 
*END

*D_NET *58 0.000229155
*CONN
*I *3818:SET_B I *D sky130_fd_sc_hd__dfstp_2
*I *3754:Y O *D sky130_fd_sc_hd__inv_2
*CAP
1 *3818:SET_B 3.52904e-05
2 *3754:Y 3.52904e-05
3 *3818:SET_B *3894:I1 0.00010288
4 *3818:SET_B *292:76 5.56943e-05
*RES
1 *3754:Y *3818:SET_B 19.6393 
*END

*D_NET *59 0.000515309
*CONN
*I *3819:RESET_B I *D sky130_fd_sc_hd__dfrtp_2
*I *3770:Y O *D sky130_fd_sc_hd__inv_2
*CAP
1 *3819:RESET_B 3.53639e-05
2 *3770:Y 3.53639e-05
3 *3819:RESET_B *286:68 5.68713e-05
4 *3819:RESET_B *289:42 0.000269268
5 *3819:RESET_B *294:101 0.000118441
*RES
1 *3770:Y *3819:RESET_B 11.8268 
*END

*D_NET *60 0.00113531
*CONN
*I *3820:RESET_B I *D sky130_fd_sc_hd__dfrtp_2
*I *3771:Y O *D sky130_fd_sc_hd__inv_2
*CAP
1 *3820:RESET_B 0.000352589
2 *3771:Y 0.000352589
3 *3820:RESET_B *286:68 0.000307878
4 *3820:RESET_B *294:101 0.000122254
5 irq *3820:RESET_B 0
*RES
1 *3771:Y *3820:RESET_B 24.55 
*END

*D_NET *61 0.000452243
*CONN
*I *3821:RESET_B I *D sky130_fd_sc_hd__dfrtp_2
*I *3772:Y O *D sky130_fd_sc_hd__inv_2
*CAP
1 *3821:RESET_B 0.000121217
2 *3772:Y 0.000121217
3 *3821:RESET_B *3772:A 3.18676e-05
4 *3821:RESET_B *267:30 0.000177941
5 *8:18 *3821:RESET_B 0
*RES
1 *3772:Y *3821:RESET_B 21.0857 
*END

*D_NET *62 0.0010234
*CONN
*I *3822:RESET_B I *D sky130_fd_sc_hd__dfrtp_2
*I *3773:Y O *D sky130_fd_sc_hd__inv_2
*CAP
1 *3822:RESET_B 0.000312388
2 *3773:Y 0.000312388
3 *3822:RESET_B *286:45 0.00027218
4 *3822:RESET_B *289:46 0.000126439
*RES
1 *3773:Y *3822:RESET_B 23.4339 
*END

*D_NET *63 0.000257283
*CONN
*I *3823:RESET_B I *D sky130_fd_sc_hd__dfrtp_2
*I *3774:Y O *D sky130_fd_sc_hd__inv_2
*CAP
1 *3823:RESET_B 6.37076e-05
2 *3774:Y 6.37076e-05
3 *3823:RESET_B *289:46 0.000129868
*RES
1 *3774:Y *3823:RESET_B 19.9429 
*END

*D_NET *64 0.000227747
*CONN
*I *3824:RESET_B I *D sky130_fd_sc_hd__dfrtp_2
*I *3775:Y O *D sky130_fd_sc_hd__inv_2
*CAP
1 *3824:RESET_B 8.30188e-05
2 *3775:Y 8.30188e-05
3 *3824:RESET_B *286:31 1.21955e-05
4 *3824:RESET_B *286:89 4.95138e-05
*RES
1 *3775:Y *3824:RESET_B 20.2464 
*END

*D_NET *65 0.000281956
*CONN
*I *3825:RESET_B I *D sky130_fd_sc_hd__dfrtp_2
*I *3776:Y O *D sky130_fd_sc_hd__inv_2
*CAP
1 *3825:RESET_B 0.000110494
2 *3776:Y 0.000110494
3 *3825:RESET_B *3740:A1 3.0102e-05
4 *3825:RESET_B *3776:A 3.08664e-05
*RES
1 *3776:Y *3825:RESET_B 20.175 
*END

*D_NET *66 0.000261964
*CONN
*I *3826:RESET_B I *D sky130_fd_sc_hd__dfrtp_2
*I *3778:Y O *D sky130_fd_sc_hd__inv_2
*CAP
1 *3826:RESET_B 0.000119611
2 *3778:Y 0.000119611
3 *3826:RESET_B *288:134 0
4 *3826:RESET_B *319:16 2.27416e-05
*RES
1 *3778:Y *3826:RESET_B 20.175 
*END

*D_NET *67 0.000381898
*CONN
*I *3827:RESET_B I *D sky130_fd_sc_hd__dfrtp_2
*I *3779:Y O *D sky130_fd_sc_hd__inv_2
*CAP
1 *3827:RESET_B 0.00016089
2 *3779:Y 0.00016089
3 *3827:RESET_B *288:83 0
4 *3827:RESET_B *288:115 6.05161e-06
5 *3827:RESET_B *288:134 2.23592e-05
6 *3827:RESET_B *297:47 3.17067e-05
*RES
1 *3779:Y *3827:RESET_B 21.0857 
*END

*D_NET *68 0.000334491
*CONN
*I *3828:RESET_B I *D sky130_fd_sc_hd__dfrtp_2
*I *3780:Y O *D sky130_fd_sc_hd__inv_2
*CAP
1 *3828:RESET_B 0.000101165
2 *3780:Y 0.000101165
3 *3828:RESET_B *3780:A 0.000132161
*RES
1 *3780:Y *3828:RESET_B 20.175 
*END

*D_NET *69 0.000444003
*CONN
*I *3829:RESET_B I *D sky130_fd_sc_hd__dfrtp_2
*I *3715:Y O *D sky130_fd_sc_hd__inv_2
*CAP
1 *3829:RESET_B 0.000128655
2 *3715:Y 0.000128655
3 *3829:RESET_B *3712:A1 7.6997e-05
4 *3702:A *3829:RESET_B 5.68722e-05
5 *34:30 *3829:RESET_B 5.2823e-05
*RES
1 *3715:Y *3829:RESET_B 21.0857 
*END

*D_NET *70 0.000452855
*CONN
*I *3830:RESET_B I *D sky130_fd_sc_hd__dfrtp_2
*I *3710:Y O *D sky130_fd_sc_hd__inv_2
*CAP
1 *3830:RESET_B 0.000124068
2 *3710:Y 0.000124068
3 *3830:RESET_B *3714:A 7.6997e-05
4 *3691:A1 *3830:RESET_B 8.24538e-05
5 *3697:A1 *3830:RESET_B 4.52695e-05
*RES
1 *3710:Y *3830:RESET_B 21.0857 
*END

*D_NET *71 0.000213513
*CONN
*I *3831:RESET_B I *D sky130_fd_sc_hd__dfrtp_2
*I *3705:Y O *D sky130_fd_sc_hd__inv_2
*CAP
1 *3831:RESET_B 5.42695e-05
2 *3705:Y 5.42695e-05
3 *3831:RESET_B *3710:A 1.02504e-05
4 *3831:RESET_B *228:45 9.4724e-05
*RES
1 *3705:Y *3831:RESET_B 19.6393 
*END

*D_NET *72 0.0002913
*CONN
*I *3832:RESET_B I *D sky130_fd_sc_hd__dfrtp_2
*I *3701:Y O *D sky130_fd_sc_hd__inv_2
*CAP
1 *3832:RESET_B 0.000119378
2 *3701:Y 0.000119378
3 *3832:RESET_B *3701:A 1.83136e-05
4 *3832:RESET_B *3832:D 3.42301e-05
5 *3832:RESET_B *292:61 0
6 *3832:RESET_B *292:76 0
*RES
1 *3701:Y *3832:RESET_B 20.175 
*END

*D_NET *73 0.000223748
*CONN
*I *3833:RESET_B I *D sky130_fd_sc_hd__dfrtp_2
*I *3695:Y O *D sky130_fd_sc_hd__inv_2
*CAP
1 *3833:RESET_B 6.15545e-05
2 *3695:Y 6.15545e-05
3 *3833:RESET_B *228:22 0.000100639
*RES
1 *3695:Y *3833:RESET_B 19.6393 
*END

*D_NET *74 0.000389179
*CONN
*I *3834:RESET_B I *D sky130_fd_sc_hd__dfrtp_2
*I *3690:Y O *D sky130_fd_sc_hd__inv_2
*CAP
1 *3834:RESET_B 0.000134884
2 *3690:Y 0.000134884
3 *3834:RESET_B *3786:A 2.14083e-05
4 *3834:RESET_B *228:18 9.80029e-05
*RES
1 *3690:Y *3834:RESET_B 21.0857 
*END

*D_NET *75 0.00199105
*CONN
*I *3835:RESET_B I *D sky130_fd_sc_hd__dfrtp_2
*I *3683:Y O *D sky130_fd_sc_hd__inv_2
*CAP
1 *3835:RESET_B 0.000439927
2 *3683:Y 0.000439927
3 *3835:RESET_B *3688:A3 9.41642e-05
4 *3835:RESET_B *3689:B2 2.34204e-05
5 *3835:RESET_B *3850:CLK 9.69119e-06
6 *3835:RESET_B *228:16 0.000230353
7 *3835:RESET_B *228:114 0.000526949
8 *3835:RESET_B *230:12 1.46717e-05
9 *3835:RESET_B *232:16 1.32552e-05
10 *3835:RESET_B *234:12 0.000198691
11 *3835:RESET_B *234:24 0
*RES
1 *3683:Y *3835:RESET_B 28.7732 
*END

*D_NET *76 0.000350165
*CONN
*I *3836:RESET_B I *D sky130_fd_sc_hd__dfrtp_2
*I *3673:Y O *D sky130_fd_sc_hd__inv_2
*CAP
1 *3836:RESET_B 0.000103768
2 *3673:Y 0.000103768
3 *3836:RESET_B *176:83 9.11365e-06
4 *3836:RESET_B *232:85 7.6644e-05
5 *5:12 *3836:RESET_B 5.68722e-05
*RES
1 *3673:Y *3836:RESET_B 20.175 
*END

*D_NET *77 0.000453598
*CONN
*I *3837:RESET_B I *D sky130_fd_sc_hd__dfrtp_2
*I *3789:Y O *D sky130_fd_sc_hd__inv_2
*CAP
1 *3837:RESET_B 0.000100658
2 *3789:Y 0.000100658
3 *3837:RESET_B *3670:A 0.000150096
4 *3837:RESET_B *3731:B1 5.33005e-05
5 *5:47 *3837:RESET_B 4.88847e-05
*RES
1 *3789:Y *3837:RESET_B 20.7821 
*END

*D_NET *78 0.000872956
*CONN
*I *3838:RESET_B I *D sky130_fd_sc_hd__dfrtp_2
*I *3791:Y O *D sky130_fd_sc_hd__inv_2
*CAP
1 *3838:RESET_B 0.000332572
2 *3791:Y 0.000332572
3 *3838:RESET_B *3665:A0 0
4 *3838:RESET_B *3666:A 0.000107549
5 *3838:RESET_B *3838:D 0.000100262
6 *4:67 *3838:RESET_B 0
*RES
1 *3791:Y *3838:RESET_B 24.4071 
*END

*D_NET *79 0.000347781
*CONN
*I *3839:RESET_B I *D sky130_fd_sc_hd__dfrtp_2
*I *3792:Y O *D sky130_fd_sc_hd__inv_2
*CAP
1 *3839:RESET_B 8.41009e-05
2 *3792:Y 8.41009e-05
3 *3839:RESET_B *3731:B1 7.6997e-05
4 *3839:RESET_B *190:25 4.82237e-05
5 *3839:RESET_B *308:12 3.5848e-05
6 *3839:RESET_B *308:47 1.85103e-05
*RES
1 *3792:Y *3839:RESET_B 20.55 
*END

*D_NET *80 0.000903981
*CONN
*I *3840:RESET_B I *D sky130_fd_sc_hd__dfrtp_2
*I *3793:Y O *D sky130_fd_sc_hd__inv_2
*CAP
1 *3840:RESET_B 0.00012876
2 *3793:Y 0.00012876
3 *3840:RESET_B *3644:C 0
4 *3840:RESET_B *3655:A1 0.000271958
5 *3840:RESET_B *288:14 1.02504e-05
6 *3840:RESET_B *288:16 0.000364253
*RES
1 *3793:Y *3840:RESET_B 22.9786 
*END

*D_NET *81 0.000436444
*CONN
*I *3841:RESET_B I *D sky130_fd_sc_hd__dfrtp_2
*I *3794:Y O *D sky130_fd_sc_hd__inv_2
*CAP
1 *3841:RESET_B 7.31507e-05
2 *3794:Y 7.31507e-05
3 *3841:RESET_B *3841:CLK 0.000180162
4 *3841:RESET_B *288:66 3.53865e-05
5 *3841:RESET_B *310:12 7.45939e-05
*RES
1 *3794:Y *3841:RESET_B 11.8268 
*END

*D_NET *82 0.0005547
*CONN
*I *3842:RESET_B I *D sky130_fd_sc_hd__dfrtp_2
*I *3795:Y O *D sky130_fd_sc_hd__inv_2
*CAP
1 *3842:RESET_B 0.000140843
2 *3795:Y 0.000140843
3 *3842:RESET_B *3795:A 9.51594e-05
4 *3842:RESET_B *311:10 0.000177854
*RES
1 *3795:Y *3842:RESET_B 12.6482 
*END

*D_NET *83 0.000762804
*CONN
*I *3843:RESET_B I *D sky130_fd_sc_hd__dfrtp_2
*I *3796:Y O *D sky130_fd_sc_hd__inv_2
*CAP
1 *3843:RESET_B 0.000263854
2 *3796:Y 0.000263854
3 *3843:RESET_B *3796:A 5.65955e-05
4 *3843:RESET_B *3843:CLK 0.000178501
*RES
1 *3796:Y *3843:RESET_B 14.5768 
*END

*D_NET *84 0.000736579
*CONN
*I *3844:RESET_B I *D sky130_fd_sc_hd__dfrtp_2
*I *3797:Y O *D sky130_fd_sc_hd__inv_2
*CAP
1 *3844:RESET_B 0.000211907
2 *3797:Y 0.000211907
3 *3844:RESET_B *3797:A 0.000187041
4 *3844:RESET_B *313:12 0.000125724
*RES
1 *3797:Y *3844:RESET_B 22.0143 
*END

*D_NET *85 0.000630578
*CONN
*I *3845:RESET_B I *D sky130_fd_sc_hd__dfrtp_2
*I *3798:Y O *D sky130_fd_sc_hd__inv_2
*CAP
1 *3845:RESET_B 0.000202716
2 *3798:Y 0.000202716
3 *3845:RESET_B *3798:A 4.72114e-05
4 *3845:RESET_B *3846:CLK 0
5 *3845:RESET_B *227:108 0.000177934
6 *3845:RESET_B *296:101 0
*RES
1 *3798:Y *3845:RESET_B 21.9071 
*END

*D_NET *86 0.000406616
*CONN
*I *3846:RESET_B I *D sky130_fd_sc_hd__dfrtp_2
*I *3799:Y O *D sky130_fd_sc_hd__inv_2
*CAP
1 *3846:RESET_B 0.000203308
2 *3799:Y 0.000203308
*RES
1 *3799:Y *3846:RESET_B 20.9964 
*END

*D_NET *87 0.000392082
*CONN
*I *3847:RESET_B I *D sky130_fd_sc_hd__dfrtp_2
*I *3800:Y O *D sky130_fd_sc_hd__inv_2
*CAP
1 *3847:RESET_B 8.56718e-05
2 *3800:Y 8.56718e-05
3 *3847:RESET_B *3618:A_N 0.000131952
4 *3847:RESET_B *3618:B 2.74352e-05
5 *3847:RESET_B *179:35 5.13134e-05
6 *3847:RESET_B *296:55 1.00375e-05
*RES
1 *3800:Y *3847:RESET_B 20.5232 
*END

*D_NET *88 0.000477345
*CONN
*I *3848:RESET_B I *D sky130_fd_sc_hd__dfrtp_2
*I *3801:Y O *D sky130_fd_sc_hd__inv_2
*CAP
1 *3848:RESET_B 0.000141828
2 *3801:Y 0.000141828
3 *3848:RESET_B *3801:A 1.21258e-05
4 *3848:RESET_B *227:20 0.000175512
5 *3848:RESET_B *227:91 6.05161e-06
*RES
1 *3801:Y *3848:RESET_B 21.0857 
*END

*D_NET *89 0.000341873
*CONN
*I *3849:RESET_B I *D sky130_fd_sc_hd__dfrtp_2
*I *3802:Y O *D sky130_fd_sc_hd__inv_2
*CAP
1 *3849:RESET_B 8.11086e-05
2 *3802:Y 8.11086e-05
3 *3849:RESET_B *3621:A 0
4 *3849:RESET_B *227:20 0.000179656
5 *3849:RESET_B *318:12 0
*RES
1 *3802:Y *3849:RESET_B 20.55 
*END

*D_NET *90 0.000411561
*CONN
*I *3850:RESET_B I *D sky130_fd_sc_hd__dfrtp_2
*I *3803:Y O *D sky130_fd_sc_hd__inv_2
*CAP
1 *3850:RESET_B 8.55943e-05
2 *3803:Y 8.55943e-05
3 *3850:RESET_B *3608:S 8.94203e-05
4 *3850:RESET_B *3817:D 5.01213e-05
5 *3850:RESET_B *176:83 0.000100831
*RES
1 *3803:Y *3850:RESET_B 20.5232 
*END

*D_NET *91 0.000450496
*CONN
*I *3851:RESET_B I *D sky130_fd_sc_hd__dfrtp_2
*I *3804:Y O *D sky130_fd_sc_hd__inv_2
*CAP
1 *3851:RESET_B 0.000127125
2 *3804:Y 0.000127125
3 *3851:RESET_B *3598:A1 0
4 *3851:RESET_B *165:98 0.000177941
5 *3851:RESET_B *289:54 1.83053e-05
*RES
1 *3804:Y *3851:RESET_B 21.0857 
*END

*D_NET *92 0.000553996
*CONN
*I *3852:RESET_B I *D sky130_fd_sc_hd__dfrtp_2
*I *3805:Y O *D sky130_fd_sc_hd__inv_2
*CAP
1 *3852:RESET_B 7.84129e-05
2 *3805:Y 7.84129e-05
3 *3852:RESET_B *3805:A 5.33005e-05
4 *3852:RESET_B *289:42 0.000265718
5 *34:12 *3852:RESET_B 3.58979e-05
6 *34:46 *3852:RESET_B 4.22531e-05
*RES
1 *3805:Y *3852:RESET_B 12.2375 
*END

*D_NET *93 0.000521396
*CONN
*I *3853:RESET_B I *D sky130_fd_sc_hd__dfrtp_2
*I *3806:Y O *D sky130_fd_sc_hd__inv_2
*CAP
1 *3853:RESET_B 0.000206615
2 *3806:Y 0.000206615
3 *3853:RESET_B *3599:A 1.83626e-05
4 *3853:RESET_B *3858:CLK 5.06672e-05
5 *3853:RESET_B *286:27 0
6 *3598:A0 *3853:RESET_B 1.17091e-05
7 *35:25 *3853:RESET_B 2.74273e-05
*RES
1 *3806:Y *3853:RESET_B 21.7911 
*END

*D_NET *94 0.000351085
*CONN
*I *3854:RESET_B I *D sky130_fd_sc_hd__dfrtp_2
*I *3807:Y O *D sky130_fd_sc_hd__inv_2
*CAP
1 *3854:RESET_B 0.000164172
2 *3807:Y 0.000164172
3 *3854:RESET_B *3596:S 0
4 *3854:RESET_B *3807:A 2.27416e-05
*RES
1 *3807:Y *3854:RESET_B 21.0857 
*END

*D_NET *95 0.000809587
*CONN
*I *3855:SET_B I *D sky130_fd_sc_hd__dfstp_2
*I *3808:Y O *D sky130_fd_sc_hd__inv_2
*CAP
1 *3855:SET_B 0.000342725
2 *3808:Y 0.000342725
3 *3855:SET_B *3855:D 0.000124136
*RES
1 *3808:Y *3855:SET_B 23.4875 
*END

*D_NET *96 0.000790267
*CONN
*I *3856:SET_B I *D sky130_fd_sc_hd__dfstp_2
*I *3809:Y O *D sky130_fd_sc_hd__inv_2
*CAP
1 *3856:SET_B 0.000193254
2 *3809:Y 0.000193254
3 *3856:SET_B *289:42 0
4 *3856:SET_B *294:72 0.00040376
*RES
1 *3809:Y *3856:SET_B 13.9161 
*END

*D_NET *97 0.000606888
*CONN
*I *3857:SET_B I *D sky130_fd_sc_hd__dfstp_2
*I *3810:Y O *D sky130_fd_sc_hd__inv_2
*CAP
1 *3857:SET_B 0.000276745
2 *3810:Y 0.000276745
3 *3857:SET_B *3819:D 0
4 *16:28 *3857:SET_B 5.33978e-05
*RES
1 *3810:Y *3857:SET_B 22.5768 
*END

*D_NET *98 0.000165593
*CONN
*I *3858:SET_B I *D sky130_fd_sc_hd__dfstp_2
*I *3811:Y O *D sky130_fd_sc_hd__inv_2
*CAP
1 *3858:SET_B 6.99616e-05
2 *3811:Y 6.99616e-05
3 *3858:SET_B *3588:S 0
4 *3858:SET_B *3811:A 2.56694e-05
5 *49:10 *3858:SET_B 0
*RES
1 *3811:Y *3858:SET_B 19.6393 
*END

*D_NET *99 0.000312094
*CONN
*I *3859:RESET_B I *D sky130_fd_sc_hd__dfrtp_2
*I *3812:Y O *D sky130_fd_sc_hd__inv_2
*CAP
1 *3859:RESET_B 0.000113509
2 *3812:Y 0.000113509
3 *3859:RESET_B *286:27 1.00375e-05
4 *3859:RESET_B *289:93 3.08664e-05
5 *3859:RESET_B *289:100 7.20217e-06
6 *49:32 *3859:RESET_B 3.69697e-05
*RES
1 *3812:Y *3859:RESET_B 20.175 
*END

*D_NET *100 0.00137544
*CONN
*I *3860:RESET_B I *D sky130_fd_sc_hd__dfrtp_2
*I *3813:Y O *D sky130_fd_sc_hd__inv_2
*CAP
1 *3860:RESET_B 0.000360412
2 *3813:Y 0.000360412
3 *3860:RESET_B *3860:D 5.47223e-05
4 *3860:RESET_B *165:16 6.80593e-05
5 *3860:RESET_B *294:25 0.000531839
*RES
1 *3813:Y *3860:RESET_B 26.0321 
*END

*D_NET *101 0.00129813
*CONN
*I *3817:D I *D sky130_fd_sc_hd__dfrtp_2
*I *3756:X O *D sky130_fd_sc_hd__o211a_2
*CAP
1 *3817:D 0.000494791
2 *3756:X 0.000494791
3 *3817:D *3609:A 6.30292e-05
4 *3817:D *3756:A2 2.37761e-05
5 *3817:D *3763:A 0.000100831
6 *3817:D *176:83 7.07908e-05
7 *3850:RESET_B *3817:D 5.01213e-05
*RES
1 *3756:X *3817:D 36.7429 
*END

*D_NET *102 0.000273853
*CONN
*I *3819:D I *D sky130_fd_sc_hd__dfrtp_2
*I *3753:X O *D sky130_fd_sc_hd__buf_1
*CAP
1 *3819:D 0.000123209
2 *3753:X 0.000123209
3 *3819:D *3753:A 2.74352e-05
4 *3857:SET_B *3819:D 0
5 *16:28 *3819:D 0
*RES
1 *3753:X *3819:D 29.475 
*END

*D_NET *103 0.000952561
*CONN
*I *3820:D I *D sky130_fd_sc_hd__dfrtp_2
*I *3751:X O *D sky130_fd_sc_hd__buf_1
*CAP
1 *3820:D 0.000233276
2 *3751:X 0.000233276
3 *3820:D *3590:A1 5.49489e-05
4 *3820:D *3592:A1 1.98839e-05
5 *3820:D *165:55 7.57312e-05
6 *3820:D *329:27 9.71197e-05
7 *4:39 *3820:D 9.76123e-05
8 *34:30 *3820:D 0.000140714
*RES
1 *3751:X *3820:D 32.0643 
*END

*D_NET *104 0.000274854
*CONN
*I *3821:D I *D sky130_fd_sc_hd__dfrtp_2
*I *3749:X O *D sky130_fd_sc_hd__buf_1
*CAP
1 *3821:D 3.75945e-05
2 *3749:X 3.75945e-05
3 *4:39 *3821:D 6.97972e-05
4 *8:18 *3821:D 0.000129868
*RES
1 *3749:X *3821:D 29.2429 
*END

*D_NET *105 0.000411078
*CONN
*I *3822:D I *D sky130_fd_sc_hd__dfrtp_2
*I *3747:X O *D sky130_fd_sc_hd__buf_1
*CAP
1 *3822:D 0.000149471
2 *3747:X 0.000149471
3 *3822:D *3890:A 0.000101363
4 *3822:D *165:72 0
5 *3702:A *3822:D 1.07719e-05
*RES
1 *3747:X *3822:D 30.0107 
*END

*D_NET *106 0.00135294
*CONN
*I *3823:D I *D sky130_fd_sc_hd__dfrtp_2
*I *3745:X O *D sky130_fd_sc_hd__buf_1
*CAP
1 *3823:D 0.000517785
2 *3745:X 0.000517785
3 *3823:D *3600:A1 0
4 *3823:D *3601:A 0
5 *3823:D *289:46 0.000272665
6 *4:17 *3823:D 4.47048e-05
7 *34:12 *3823:D 0
*RES
1 *3745:X *3823:D 35.725 
*END

*D_NET *107 0.000408471
*CONN
*I *3824:D I *D sky130_fd_sc_hd__dfrtp_2
*I *3743:X O *D sky130_fd_sc_hd__buf_1
*CAP
1 *3824:D 0.000122855
2 *3743:X 0.000122855
3 *3824:D *3743:A 8.23859e-05
4 *3824:D *3824:CLK 2.84026e-05
5 *3824:D *332:14 5.19718e-05
*RES
1 *3743:X *3824:D 30.3857 
*END

*D_NET *108 0.000413596
*CONN
*I *3825:D I *D sky130_fd_sc_hd__dfrtp_2
*I *3741:X O *D sky130_fd_sc_hd__buf_1
*CAP
1 *3825:D 0.000171614
2 *3741:X 0.000171614
3 *3825:D *3741:A 5.47676e-05
4 *3825:D *3825:CLK 1.56e-05
*RES
1 *3741:X *3825:D 20.7964 
*END

*D_NET *109 0.0009651
*CONN
*I *3826:D I *D sky130_fd_sc_hd__dfrtp_2
*I *3739:X O *D sky130_fd_sc_hd__a22o_2
*CAP
1 *3826:D 0.000337553
2 *3739:X 0.000337553
3 *3826:D *3739:A2 1.90936e-05
4 *3826:D *288:134 0
5 *3826:D *297:34 0.000194227
6 *3826:D *319:16 7.57394e-05
7 *3826:D *320:22 9.33978e-07
*RES
1 *3739:X *3826:D 32.8857 
*END

*D_NET *110 0.000678321
*CONN
*I *3827:D I *D sky130_fd_sc_hd__dfrtp_2
*I *3737:X O *D sky130_fd_sc_hd__o32a_2
*CAP
1 *3827:D 0.000261252
2 *3737:X 0.000261252
3 *3827:D *3736:B 7.92879e-05
4 *3827:D *3737:A2 1.40306e-05
5 *3827:D *288:83 5.33882e-05
6 *3827:D *320:22 9.11048e-06
7 pll_bypass *3827:D 0
*RES
1 *3737:X *3827:D 32.3143 
*END

*D_NET *111 0.000773117
*CONN
*I *3828:D I *D sky130_fd_sc_hd__dfrtp_2
*I *3735:X O *D sky130_fd_sc_hd__o22a_2
*CAP
1 *3828:D 0.00023954
2 *3735:X 0.00023954
3 *3828:D *3731:A2 7.92229e-06
4 *3828:D *3735:B1 9.77414e-05
5 *3828:D *3735:B2 0.000188372
*RES
1 *3735:X *3828:D 22.8321 
*END

*D_NET *112 0.0011685
*CONN
*I *3829:D I *D sky130_fd_sc_hd__dfrtp_2
*I *3725:X O *D sky130_fd_sc_hd__a2bb2o_2
*CAP
1 *3829:D 0.000488707
2 *3725:X 0.000488707
3 *3829:D *3707:S 0
4 *3829:D *3712:A1 8.46507e-06
5 *3829:D *3724:B1 9.25014e-06
6 *34:30 *3829:D 3.25078e-05
7 *53:46 *3829:D 0.000140865
*RES
1 *3725:X *3829:D 33.8321 
*END

*D_NET *113 0.000765607
*CONN
*I *3830:D I *D sky130_fd_sc_hd__dfrtp_2
*I *3714:X O *D sky130_fd_sc_hd__buf_1
*CAP
1 *3830:D 0.000231903
2 *3714:X 0.000231903
3 *3830:D *3710:A 1.40415e-05
4 *3697:A1 *3830:D 0.000114095
5 *2:33 *3830:D 9.66665e-05
6 *14:58 *3830:D 7.6997e-05
*RES
1 *3714:X *3830:D 31.4259 
*END

*D_NET *114 0.00054363
*CONN
*I *3831:D I *D sky130_fd_sc_hd__dfrtp_2
*I *3709:X O *D sky130_fd_sc_hd__buf_1
*CAP
1 *3831:D 0.000271815
2 *3709:X 0.000271815
3 *3831:D *292:8 0
4 *3831:D *292:61 0
*RES
1 *3709:X *3831:D 31.9036 
*END

*D_NET *115 0.00115695
*CONN
*I *3832:D I *D sky130_fd_sc_hd__dfrtp_2
*I *3704:X O *D sky130_fd_sc_hd__o21a_2
*CAP
1 *3832:D 0.000525876
2 *3704:X 0.000525876
3 *3832:D *3701:A 1.83136e-05
4 *3832:D *3832:CLK 3.57366e-05
5 *3832:D *228:45 1.69175e-05
6 *3832:RESET_B *3832:D 3.42301e-05
*RES
1 *3704:X *3832:D 34.2429 
*END

*D_NET *116 0.00101569
*CONN
*I *3833:D I *D sky130_fd_sc_hd__dfrtp_2
*I *3700:X O *D sky130_fd_sc_hd__o22a_2
*CAP
1 *3833:D 0.000251386
2 *3700:X 0.000251386
3 *3833:D *3769:A 0.000305138
4 *3894:I0 *3833:D 0.000207776
*RES
1 *3700:X *3833:D 34.7071 
*END

*D_NET *117 0.000193234
*CONN
*I *3834:D I *D sky130_fd_sc_hd__dfrtp_2
*I *3694:X O *D sky130_fd_sc_hd__buf_1
*CAP
1 *3834:D 9.66169e-05
2 *3694:X 9.66169e-05
3 *3834:D *3786:A 0
*RES
1 *3694:X *3834:D 29.2429 
*END

*D_NET *118 0.000511816
*CONN
*I *3835:D I *D sky130_fd_sc_hd__dfrtp_2
*I *3689:X O *D sky130_fd_sc_hd__o22a_2
*CAP
1 *3835:D 0.000164154
2 *3689:X 0.000164154
3 *3835:D *3689:B1 5.36394e-05
4 *3835:D *176:10 0.000129868
*RES
1 *3689:X *3835:D 30.6 
*END

*D_NET *119 0.000370043
*CONN
*I *3836:D I *D sky130_fd_sc_hd__dfrtp_2
*I *3682:X O *D sky130_fd_sc_hd__a22o_2
*CAP
1 *3836:D 0.000104518
2 *3682:X 0.000104518
3 *3688:B1 *3836:D 0.000100639
4 *5:12 *3836:D 6.03685e-05
*RES
1 *3682:X *3836:D 29.5107 
*END

*D_NET *120 0.000848971
*CONN
*I *3837:D I *D sky130_fd_sc_hd__dfrtp_2
*I *3670:X O *D sky130_fd_sc_hd__buf_1
*CAP
1 *3837:D 0.000154801
2 *3670:X 0.000154801
3 *3837:D *3669:S 3.25078e-05
4 *3837:D *3731:A1 0.000156771
5 *3837:D *188:12 0.000224492
6 *5:47 *3837:D 0.000125599
*RES
1 *3670:X *3837:D 32.6536 
*END

*D_NET *121 0.000606658
*CONN
*I *3838:D I *D sky130_fd_sc_hd__dfrtp_2
*I *3666:X O *D sky130_fd_sc_hd__buf_1
*CAP
1 *3838:D 0.000225724
2 *3666:X 0.000225724
3 *3838:D *295:79 0
4 *3838:RESET_B *3838:D 0.000100262
5 *49:32 *3838:D 5.49489e-05
*RES
1 *3666:X *3838:D 31.7607 
*END

*D_NET *122 0.000478894
*CONN
*I *3839:D I *D sky130_fd_sc_hd__dfrtp_2
*I *3661:X O *D sky130_fd_sc_hd__buf_1
*CAP
1 *3839:D 9.19014e-05
2 *3661:X 9.19014e-05
3 *3839:D *3839:CLK 5.03772e-05
4 *3839:D *174:26 0.000182875
5 *4:169 *3839:D 6.18396e-05
*RES
1 *3661:X *3839:D 21.2071 
*END

*D_NET *123 0.00122299
*CONN
*I *3840:D I *D sky130_fd_sc_hd__dfrtp_2
*I *3658:X O *D sky130_fd_sc_hd__a21o_2
*CAP
1 *3840:D 0.000485805
2 *3658:X 0.000485805
3 *3840:D *3655:A1 0
4 *3840:D *308:62 0.000128161
5 *3840:D *309:8 0.000117914
6 *3840:D *309:62 5.30637e-06
*RES
1 *3658:X *3840:D 35.9393 
*END

*D_NET *124 0.000311037
*CONN
*I *3841:D I *D sky130_fd_sc_hd__dfrtp_2
*I *3654:X O *D sky130_fd_sc_hd__buf_1
*CAP
1 *3841:D 7.14585e-05
2 *3654:X 7.14585e-05
3 *3841:D *3654:A 1.33343e-05
4 *3841:D *3841:CLK 5.41609e-05
5 *3841:D *288:66 0.000100625
*RES
1 *3654:X *3841:D 20.7964 
*END

*D_NET *125 0.000266582
*CONN
*I *3842:D I *D sky130_fd_sc_hd__dfrtp_2
*I *3649:X O *D sky130_fd_sc_hd__buf_1
*CAP
1 *3842:D 2.83166e-05
2 *3649:X 2.83166e-05
3 *3842:D *3649:A 0.000104974
4 pll_bypass *3842:D 0.000104974
*RES
1 *3649:X *3842:D 28.9393 
*END

*D_NET *126 0.00145936
*CONN
*I *3843:D I *D sky130_fd_sc_hd__dfrtp_2
*I *3643:X O *D sky130_fd_sc_hd__a22o_2
*CAP
1 *3843:D 0.000416204
2 *3643:X 0.000416204
3 *3843:D *3636:A 0.000151989
4 *3843:D *3636:B 5.59013e-05
5 *3843:D *3643:A2 0.000117014
6 *3843:D *3796:A 0
7 *3843:D *3843:CLK 0.000175018
8 pll_bypass *3843:D 0.000127029
*RES
1 *3643:X *3843:D 35.7786 
*END

*D_NET *127 0.000536847
*CONN
*I *3844:D I *D sky130_fd_sc_hd__dfrtp_2
*I *3640:X O *D sky130_fd_sc_hd__o22a_2
*CAP
1 *3844:D 0.000196736
2 *3640:X 0.000196736
3 *3844:D *3629:S 0.000143375
4 *3844:D *3632:B1 0
*RES
1 *3640:X *3844:D 30.6 
*END

*D_NET *128 0.00028808
*CONN
*I *3845:D I *D sky130_fd_sc_hd__dfrtp_2
*I *3638:X O *D sky130_fd_sc_hd__xor2_2
*CAP
1 *3845:D 0.00011029
2 *3638:X 0.00011029
3 *3845:D *296:101 6.75007e-05
*RES
1 *3638:X *3845:D 29.7786 
*END

*D_NET *129 0.000595543
*CONN
*I *3846:D I *D sky130_fd_sc_hd__dfrtp_2
*I *3632:X O *D sky130_fd_sc_hd__a21o_2
*CAP
1 *3846:D 0.000247365
2 *3632:X 0.000247365
3 *3846:D *3632:B1 3.84349e-05
4 *3846:D *3799:A 6.2379e-05
*RES
1 *3632:X *3846:D 31.8321 
*END

*D_NET *130 0.000576879
*CONN
*I *3847:D I *D sky130_fd_sc_hd__dfrtp_2
*I *3619:X O *D sky130_fd_sc_hd__buf_1
*CAP
1 *3847:D 0.000228252
2 *3619:X 0.000228252
3 *3847:D *179:35 0.000102362
4 *3847:D *296:55 0
5 *3847:D *296:59 1.80136e-05
*RES
1 *3619:X *3847:D 31.3679 
*END

*D_NET *131 0.000370102
*CONN
*I *3848:D I *D sky130_fd_sc_hd__dfrtp_2
*I *3615:X O *D sky130_fd_sc_hd__buf_1
*CAP
1 *3848:D 0.000155165
2 *3615:X 0.000155165
3 *3848:D *3615:A 3.13687e-05
4 *3848:D *3849:CLK 0
5 *3848:D *227:20 0
6 *3848:D *296:61 2.84026e-05
*RES
1 *3615:X *3848:D 30.0107 
*END

*D_NET *132 0.000602383
*CONN
*I *3849:D I *D sky130_fd_sc_hd__dfrtp_2
*I *3612:Y O *D sky130_fd_sc_hd__xnor2_2
*CAP
1 *3849:D 0.000301191
2 *3612:Y 0.000301191
3 *3849:D *3612:B 0
*RES
1 *3612:Y *3849:D 32.5643 
*END

*D_NET *133 0.00054649
*CONN
*I *3850:D I *D sky130_fd_sc_hd__dfrtp_2
*I *3609:X O *D sky130_fd_sc_hd__buf_1
*CAP
1 *3850:D 0.000163056
2 *3609:X 0.000163056
3 *3850:D *227:43 0.000220379
*RES
1 *3609:X *3850:D 30.8321 
*END

*D_NET *134 0.000706108
*CONN
*I *3851:D I *D sky130_fd_sc_hd__dfrtp_2
*I *3603:X O *D sky130_fd_sc_hd__buf_1
*CAP
1 *3851:D 0.00022558
2 *3603:X 0.00022558
3 *3851:D *3599:A 9.80173e-05
4 *3851:D *286:27 6.74911e-05
5 *3851:D *295:10 4.29414e-05
6 *33:10 *3851:D 4.64978e-05
*RES
1 *3603:X *3851:D 32.2429 
*END

*D_NET *135 0.00035052
*CONN
*I *3852:D I *D sky130_fd_sc_hd__dfrtp_2
*I *3601:X O *D sky130_fd_sc_hd__buf_1
*CAP
1 *3852:D 0.000128154
2 *3601:X 0.000128154
3 *3852:D *3823:CLK 9.42115e-05
*RES
1 *3601:X *3852:D 29.6402 
*END

*D_NET *136 0.000586672
*CONN
*I *3853:D I *D sky130_fd_sc_hd__dfrtp_2
*I *3599:X O *D sky130_fd_sc_hd__buf_1
*CAP
1 *3853:D 0.000150115
2 *3599:X 0.000150115
3 *3853:D *289:93 3.34366e-05
4 *3853:D *295:10 0.000144773
5 *3853:D *295:66 9.91224e-05
6 *3853:D *295:79 9.11048e-06
*RES
1 *3599:X *3853:D 30.2964 
*END

*D_NET *137 0.000887696
*CONN
*I *3854:D I *D sky130_fd_sc_hd__dfrtp_2
*I *3597:X O *D sky130_fd_sc_hd__buf_1
*CAP
1 *3854:D 0.000304105
2 *3597:X 0.000304105
3 *3854:D *3598:A1 7.83659e-05
4 *3854:D *334:14 0.00020112
5 *36:16 *3854:D 0
*RES
1 *3597:X *3854:D 32.8723 
*END

*D_NET *138 0.000557636
*CONN
*I *3855:D I *D sky130_fd_sc_hd__dfstp_2
*I *3595:X O *D sky130_fd_sc_hd__buf_1
*CAP
1 *3855:D 0.00021675
2 *3595:X 0.00021675
3 *3855:SET_B *3855:D 0.000124136
*RES
1 *3595:X *3855:D 31.3143 
*END

*D_NET *139 0.000587465
*CONN
*I *3856:D I *D sky130_fd_sc_hd__dfstp_2
*I *3593:X O *D sky130_fd_sc_hd__buf_1
*CAP
1 *3856:D 0.000234953
2 *3593:X 0.000234953
3 *3856:D *3857:CLK 1.02504e-05
4 *3856:D *3857:D 0
5 *32:33 *3856:D 5.48581e-05
6 *37:14 *3856:D 5.24506e-05
*RES
1 *3593:X *3856:D 31.3143 
*END

*D_NET *140 0.00073143
*CONN
*I *3857:D I *D sky130_fd_sc_hd__dfstp_2
*I *3591:X O *D sky130_fd_sc_hd__buf_1
*CAP
1 *3857:D 0.000365715
2 *3591:X 0.000365715
3 *3857:D *3857:CLK 0
4 *3856:D *3857:D 0
*RES
1 *3591:X *3857:D 33.3321 
*END

*D_NET *141 0.000837488
*CONN
*I *3858:D I *D sky130_fd_sc_hd__dfstp_2
*I *3589:X O *D sky130_fd_sc_hd__buf_1
*CAP
1 *3858:D 0.000293722
2 *3589:X 0.000293722
3 *3858:D *3588:S 0.00013464
4 *3858:D *3589:A 5.15193e-05
5 *3858:D *3811:A 5.018e-05
6 *35:25 *3858:D 0
7 *49:14 *3858:D 1.37049e-05
*RES
1 *3589:X *3858:D 32.6714 
*END

*D_NET *142 0.000341107
*CONN
*I *3859:D I *D sky130_fd_sc_hd__dfrtp_2
*I *3582:X O *D sky130_fd_sc_hd__buf_1
*CAP
1 *3859:D 0.000120892
2 *3582:X 0.000120892
3 *3859:D *3582:A 1.32056e-05
4 *3859:D *3859:CLK 7.8195e-05
5 *31:10 *3859:D 7.92229e-06
*RES
1 *3582:X *3859:D 20.7964 
*END

*D_NET *143 0.000620682
*CONN
*I *3860:D I *D sky130_fd_sc_hd__dfrtp_2
*I *3577:X O *D sky130_fd_sc_hd__buf_1
*CAP
1 *3860:D 0.000253824
2 *3577:X 0.000253824
3 *3860:D *165:16 0
4 *3860:D *294:66 5.83118e-05
5 *3860:RESET_B *3860:D 5.47223e-05
6 *16:28 *3860:D 0
*RES
1 *3577:X *3860:D 31.7429 
*END

*D_NET *144 0.015692
*CONN
*I *3623:B1 I *D sky130_fd_sc_hd__a31o_2
*I *3635:A I *D sky130_fd_sc_hd__nor2_2
*I *3566:A2 I *D sky130_fd_sc_hd__a211o_2
*I *3565:A_N I *D sky130_fd_sc_hd__and2b_2
*I *3610:A1 I *D sky130_fd_sc_hd__o31a_2
*I *3616:A I *D sky130_fd_sc_hd__buf_1
*I *3646:A I *D sky130_fd_sc_hd__nor2_2
*I *3651:A I *D sky130_fd_sc_hd__nor2_2
*I *3727:A I *D sky130_fd_sc_hd__or3b_2
*I *3573:S I *D sky130_fd_sc_hd__mux2_2
*I *3564:X O *D sky130_fd_sc_hd__buf_1
*CAP
1 *3623:B1 0.000389814
2 *3635:A 0.000413487
3 *3566:A2 9.27881e-05
4 *3565:A_N 0.000136386
5 *3610:A1 0.00039719
6 *3616:A 3.61152e-05
7 *3646:A 0.000131233
8 *3651:A 0.00011646
9 *3727:A 5.2673e-05
10 *3573:S 3.82788e-05
11 *3564:X 0.000141738
12 *144:103 0.000570034
13 *144:73 0.000555911
14 *144:62 0.000397338
15 *144:58 0.000551794
16 *144:47 0.000428806
17 *144:34 0.000939207
18 *144:30 0.00111667
19 *144:21 0.000262108
20 *144:8 0.00033692
21 *3565:A_N *3625:A 9.60875e-05
22 *3565:A_N *3634:A 0.000125724
23 *3565:A_N *190:44 0.000327387
24 *3565:A_N *288:8 4.87854e-05
25 *3565:A_N *288:14 9.10431e-06
26 *3565:A_N *314:27 0.000187733
27 *3566:A2 *3566:A1 6.09963e-05
28 *3573:S *3730:A 9.76435e-06
29 *3573:S *148:12 7.57394e-05
30 *3573:S *188:29 0.000185124
31 *3610:A1 *3610:A2 6.12987e-05
32 *3610:A1 *3633:A 5.59013e-05
33 *3610:A1 *147:14 1.91414e-05
34 *3610:A1 *174:44 0.000282765
35 *3610:A1 *183:12 0.000746993
36 *3610:A1 *190:35 0.000320031
37 *3610:A1 *190:44 0.000441363
38 *3610:A1 *288:14 3.28897e-05
39 *3616:A *3634:A 4.58194e-05
40 *3616:A *3638:B 9.41642e-05
41 *3623:B1 *3731:A2 0.000101291
42 *3623:B1 *3893:A 0.000142856
43 *3623:B1 *183:107 0.000148449
44 *3623:B1 *270:12 7.64988e-05
45 *3623:B1 *338:49 0.000300522
46 *3635:A *3566:A1 2.88018e-06
47 *3635:A *3566:B1 1.55885e-05
48 *3635:A *3566:C1 3.74636e-05
49 *3635:A *3627:B 1.98839e-05
50 *3635:A *3628:B 8.18233e-06
51 *3635:A *3635:B 0.000282521
52 *3635:A *312:16 0.000100685
53 *3635:A *312:25 3.69501e-05
54 *3646:A *3644:A 9.83442e-05
55 *3646:A *3644:C 0.000140933
56 *3646:A *192:25 5.65955e-05
57 *3651:A *3626:D 0.000193529
58 *3727:A *338:49 0.000141729
59 *144:8 *3568:A0 0.000313857
60 *144:8 *3568:A1 3.14193e-05
61 *144:8 *3730:A 0.000481293
62 *144:8 *188:29 1.91998e-05
63 *144:21 *3728:A 0
64 *144:21 *290:34 0.000188218
65 *144:30 *3893:A 0.000137983
66 *144:30 *338:49 0.000168334
67 *144:34 *3652:B1 5.10822e-05
68 *144:34 *3654:A 7.83587e-05
69 *144:34 *183:52 0
70 *144:34 *183:107 0
71 *144:34 *190:14 0.000106552
72 *144:34 *190:123 1.23511e-05
73 *144:34 *309:75 1.37292e-05
74 *144:34 *310:25 0.000458476
75 *144:34 *337:80 0
76 *144:47 *3644:B 1.87004e-05
77 *144:47 *3644:C 0
78 *144:47 *3652:B1 2.61337e-05
79 *144:47 *206:10 0.000103267
80 *144:58 *3628:A 4.46186e-06
81 *144:58 *3638:B 6.8646e-06
82 *144:58 *3644:B 3.20153e-05
83 *144:58 *183:63 0
84 *144:62 *3634:A 2.89114e-05
85 *144:62 *3638:B 0.000953769
86 *144:62 *194:10 5.52238e-05
87 *144:103 *3628:A 6.19181e-05
88 *144:103 *194:10 0.000103267
*RES
1 *3564:X *144:8 14.675 
2 *144:8 *3573:S 11.0679 
3 *144:8 *144:21 11.5536 
4 *144:21 *3727:A 10.6571 
5 *144:21 *144:30 1.76786 
6 *144:30 *144:34 18.8929 
7 *144:34 *3651:A 16.3 
8 *144:34 *144:47 2.85714 
9 *144:47 *3646:A 16.8 
10 *144:47 *144:58 2.85714 
11 *144:58 *144:62 13.6607 
12 *144:62 *3616:A 10.2464 
13 *144:62 *144:73 4.92857 
14 *144:73 *3610:A1 27.9964 
15 *144:73 *3565:A_N 19.1214 
16 *144:58 *144:103 6.14286 
17 *144:103 *3566:A2 11.1036 
18 *144:103 *3635:A 24.6214 
19 *144:30 *3623:B1 26.2643 
*END

*D_NET *145 0.00104777
*CONN
*I *3631:A2 I *D sky130_fd_sc_hd__o221a_2
*I *3567:B I *D sky130_fd_sc_hd__nor3_2
*I *3565:X O *D sky130_fd_sc_hd__and2b_2
*CAP
1 *3631:A2 0.000183611
2 *3567:B 0.000138317
3 *3565:X 0
4 *145:4 0.000321928
5 *3567:B *3797:A 2.41865e-05
6 *3567:B *288:14 7.83587e-05
7 *3567:B *314:8 1.97695e-05
8 *3567:B *314:27 4.66203e-05
9 *3567:B *315:14 1.02504e-05
10 *3631:A2 *3625:A 3.57366e-05
11 *3631:A2 *3629:A0 2.89016e-05
12 *3631:A2 *3631:A1 7.75567e-05
13 *3631:A2 *3631:B1 5.65955e-05
14 *3631:A2 *288:8 2.59355e-05
*RES
1 *3565:X *145:4 9.3 
2 *145:4 *3567:B 21.2107 
3 *145:4 *3631:A2 13.1393 
*END

*D_NET *146 0.000630646
*CONN
*I *3567:C I *D sky130_fd_sc_hd__nor3_2
*I *3566:X O *D sky130_fd_sc_hd__a211o_2
*CAP
1 *3567:C 0.000315323
2 *3566:X 0.000315323
*RES
1 *3566:X *3567:C 23.6536 
*END

*D_NET *147 0.00879851
*CONN
*I *3717:B I *D sky130_fd_sc_hd__and4_2
*I *3584:A I *D sky130_fd_sc_hd__and3_2
*I *3574:A I *D sky130_fd_sc_hd__and4_2
*I *3579:A I *D sky130_fd_sc_hd__and4_2
*I *3662:A I *D sky130_fd_sc_hd__and2_2
*I *3678:A I *D sky130_fd_sc_hd__and4_2
*I *3685:A I *D sky130_fd_sc_hd__and3_2
*I *3567:Y O *D sky130_fd_sc_hd__nor3_2
*CAP
1 *3717:B 4.09388e-05
2 *3584:A 5.27172e-05
3 *3574:A 2.89187e-05
4 *3579:A 0
5 *3662:A 0.000110487
6 *3678:A 0
7 *3685:A 0.000100087
8 *3567:Y 0.00144898
9 *147:57 2.89187e-05
10 *147:46 0.000192382
11 *147:42 0.000172978
12 *147:35 0.000196286
13 *147:18 0.000438052
14 *147:14 0.00166996
15 *3574:A *150:22 5.49544e-05
16 *3584:A *3584:C 4.25176e-05
17 *3584:A *153:16 7.57394e-05
18 *3662:A *3718:A2 5.83233e-05
19 *3662:A *267:30 0.000214338
20 *3662:A *341:39 0
21 *3685:A *3663:B 6.8646e-06
22 *3685:A *3685:B 0.00014489
23 *3685:A *3685:C 0.000116187
24 *3685:A *153:44 1.00332e-05
25 *3717:B *161:14 5.52238e-05
26 *147:14 *3633:A 8.22771e-05
27 *147:14 *3634:B 0.000386633
28 *147:14 *3670:A 0.000305827
29 *147:14 *3756:B1 0.000192765
30 *147:14 *3789:A 0
31 *147:14 *183:16 0.000114992
32 *147:14 *190:35 0.000321745
33 *147:14 *190:44 0.000521686
34 *147:14 *198:10 0.000360613
35 *147:14 *231:8 0.00010326
36 *147:14 *267:30 0
37 *147:14 *314:8 4.00679e-05
38 *147:14 *338:76 0.000341968
39 *147:18 *3583:A 5.05398e-05
40 *147:18 *3685:C 5.80706e-06
41 *147:18 *153:44 3.28219e-05
42 *147:18 *231:8 0.000124417
43 *147:35 *3583:B 3.50166e-05
44 *147:35 *3584:C 5.33005e-05
45 *147:35 *3585:A 0.000164236
46 *147:35 *232:14 1.24368e-05
47 *147:42 *3584:C 0.000125547
48 *147:42 *3585:A 5.33005e-05
49 *147:42 *153:16 6.05161e-06
50 *147:42 *157:18 2.58821e-05
51 *147:46 *267:30 5.84075e-05
52 *147:46 *341:39 0
53 *3610:A1 *147:14 1.91414e-05
54 *4:130 *147:14 0
*RES
1 *3567:Y *147:14 46.4071 
2 *147:14 *147:18 4 
3 *147:18 *3685:A 16.2821 
4 *147:18 *147:35 7.51786 
5 *147:35 *3678:A 9.3 
6 *147:35 *147:42 1.35714 
7 *147:42 *147:46 6.14286 
8 *147:46 *3662:A 16.6571 
9 *147:46 *147:57 4.5 
10 *147:57 *3579:A 9.3 
11 *147:57 *3574:A 9.83571 
12 *147:42 *3584:A 10.6571 
13 *147:14 *3717:B 14.3357 
*END

*D_NET *148 0.00224424
*CONN
*I *3570:A_N I *D sky130_fd_sc_hd__and2b_2
*I *3716:B I *D sky130_fd_sc_hd__and2b_2
*I *3677:A I *D sky130_fd_sc_hd__nor2_2
*I *3568:X O *D sky130_fd_sc_hd__mux2_2
*CAP
1 *3570:A_N 0.000103851
2 *3716:B 4.13846e-05
3 *3677:A 4.92752e-05
4 *3568:X 0.000296217
5 *148:14 0.000203551
6 *148:12 0.000512959
7 *3570:A_N *3570:B 6.05161e-06
8 *3677:A *3716:A_N 0.000180501
9 *3677:A *149:14 9.60939e-05
10 *3677:A *341:39 2.85957e-05
11 *3716:B *3716:A_N 0
12 *3716:B *149:14 0
13 *148:12 *3570:B 0.000101545
14 *148:12 *3571:A0 0.00011914
15 *148:12 *3728:A 5.83304e-05
16 *148:12 *3730:A 0.000141734
17 *148:12 *308:25 2.16719e-05
18 *148:14 *3570:B 2.89016e-05
19 *148:14 *3716:A_N 0.000128523
20 *148:14 *341:39 5.018e-05
21 *3573:S *148:12 7.57394e-05
*RES
1 *3568:X *148:12 25.2464 
2 *148:12 *148:14 2.58929 
3 *148:14 *3677:A 11.0679 
4 *148:14 *3716:B 10.0321 
5 *148:12 *3570:A_N 11.0679 
*END

*D_NET *149 0.00240327
*CONN
*I *3570:B I *D sky130_fd_sc_hd__and2b_2
*I *3677:B I *D sky130_fd_sc_hd__nor2_2
*I *3716:A_N I *D sky130_fd_sc_hd__and2b_2
*I *3569:X O *D sky130_fd_sc_hd__mux2_2
*CAP
1 *3570:B 0.000337467
2 *3677:B 0
3 *3716:A_N 0.000224672
4 *3569:X 0
5 *149:14 0.000335575
6 *149:4 0.00044837
7 *3570:B *3569:A0 5.92844e-05
8 *3570:B *3571:A0 0.000103253
9 *3570:B *286:14 1.01949e-05
10 *149:14 *153:10 0.00012401
11 *149:14 *341:39 9.31011e-05
12 *3570:A_N *3570:B 6.05161e-06
13 *3677:A *3716:A_N 0.000180501
14 *3677:A *149:14 9.60939e-05
15 *3716:B *3716:A_N 0
16 *3716:B *149:14 0
17 *4:111 *149:14 0.000125731
18 *148:12 *3570:B 0.000101545
19 *148:14 *3570:B 2.89016e-05
20 *148:14 *3716:A_N 0.000128523
*RES
1 *3569:X *149:4 9.3 
2 *149:4 *149:14 12.8393 
3 *149:14 *3716:A_N 13.55 
4 *149:14 *3677:B 9.3 
5 *149:4 *3570:B 23.175 
*END

*D_NET *150 0.0029696
*CONN
*I *3584:B I *D sky130_fd_sc_hd__and3_2
*I *3574:B I *D sky130_fd_sc_hd__and4_2
*I *3662:B I *D sky130_fd_sc_hd__and2_2
*I *3579:B I *D sky130_fd_sc_hd__and4_2
*I *3570:X O *D sky130_fd_sc_hd__and2b_2
*CAP
1 *3584:B 0.000168855
2 *3574:B 0
3 *3662:B 0.000122007
4 *3579:B 6.15225e-05
5 *3570:X 0.000129592
6 *150:22 0.000274305
7 *150:14 0.000268449
8 *150:8 0.000476119
9 *3579:B *3579:D 0
10 *3584:B *157:18 0.000182592
11 *3662:B *3574:C 0
12 *3662:B *3580:B 1.04232e-05
13 *3662:B *3663:B 0
14 *3662:B *3718:B1 0.000149911
15 *3662:B *152:20 5.33005e-05
16 *3662:B *267:30 0.000148189
17 *150:8 *3571:A0 0.000103267
18 *150:8 *3572:A 0.000101545
19 *150:8 *290:8 0
20 *150:8 *341:39 0.000128211
21 *150:14 *3572:A 0.00020112
22 *150:14 *3574:D 0.000126439
23 *150:14 *152:6 3.32631e-05
24 *150:14 *152:20 1.34548e-05
25 *150:14 *341:39 5.43654e-05
26 *150:22 *3574:C 1.09427e-05
27 *150:22 *152:20 9.67746e-05
28 *3574:A *150:22 5.49544e-05
*RES
1 *3570:X *150:8 17.2643 
2 *150:8 *150:14 8.41071 
3 *150:14 *150:22 2.76786 
4 *150:22 *3579:B 10.5679 
5 *150:22 *3662:B 21.9429 
6 *150:14 *3574:B 9.3 
7 *150:8 *3584:B 15.9786 
*END

*D_NET *151 0.00364717
*CONN
*I *3572:A I *D sky130_fd_sc_hd__inv_2
*I *3678:B I *D sky130_fd_sc_hd__and4_2
*I *3579:C I *D sky130_fd_sc_hd__and4_2
*I *3583:A I *D sky130_fd_sc_hd__nor2_2
*I *3571:X O *D sky130_fd_sc_hd__mux2_2
*CAP
1 *3572:A 0.000314241
2 *3678:B 0
3 *3579:C 0.000104244
4 *3583:A 0.000310166
5 *3571:X 0
6 *151:25 0.000237694
7 *151:6 0.000670365
8 *151:4 0.00054099
9 *3572:A *3574:C 3.41517e-06
10 *3572:A *152:6 9.99853e-05
11 *3579:C *3579:D 5.71472e-05
12 *3579:C *3584:C 1.02504e-05
13 *3579:C *3663:B 1.02504e-05
14 *3579:C *3718:B1 3.34783e-05
15 *3579:C *152:20 9.99644e-06
16 *3579:C *157:20 8.00806e-05
17 *3583:A *3584:C 7.48301e-06
18 *3583:A *3685:B 1.00332e-05
19 *3583:A *153:44 3.41719e-05
20 *3583:A *161:14 6.50121e-05
21 *151:6 *3584:C 3.89315e-05
22 *151:6 *3717:D 1.90111e-05
23 *151:25 *3584:C 0.000214977
24 *151:25 *157:18 5.32956e-05
25 *151:25 *157:20 4.73656e-05
26 *151:25 *231:8 5.98714e-05
27 *3717:A *3583:A 4.96113e-05
28 *4:111 *3572:A 6.81704e-05
29 *4:111 *151:6 0.000143729
30 *147:18 *3583:A 5.05398e-05
31 *150:8 *3572:A 0.000101545
32 *150:14 *3572:A 0.00020112
*RES
1 *3571:X *151:4 9.3 
2 *151:4 *151:6 3.82143 
3 *151:6 *3583:A 23.2643 
4 *151:6 *151:25 7.35714 
5 *151:25 *3579:C 15.7821 
6 *151:25 *3678:B 13.8 
7 *151:4 *3572:A 25.1036 
*END

*D_NET *152 0.00695284
*CONN
*I *3574:C I *D sky130_fd_sc_hd__and4_2
*I *3663:A I *D sky130_fd_sc_hd__nor2_2
*I *3706:B2 I *D sky130_fd_sc_hd__a221o_2
*I *3697:B2 I *D sky130_fd_sc_hd__a221o_2
*I *3686:B2 I *D sky130_fd_sc_hd__a221o_2
*I *3572:Y O *D sky130_fd_sc_hd__inv_2
*CAP
1 *3574:C 1.67537e-05
2 *3663:A 3.80696e-05
3 *3706:B2 0
4 *3697:B2 0.000189285
5 *3686:B2 0.000182857
6 *3572:Y 0.000132762
7 *152:45 0.000351799
8 *152:26 0.00118252
9 *152:20 0.00131918
10 *152:6 0.000593476
11 *3686:B2 *3686:A2 0.000115045
12 *3686:B2 *3686:B1 4.5701e-05
13 *3686:B2 *3688:A2 9.76689e-05
14 *3686:B2 *3700:B2 0.000205938
15 *3686:B2 *163:58 0.000225609
16 *3686:B2 *232:44 2.21339e-05
17 *3697:B2 *3697:A2 0.000117937
18 *3697:B2 *3697:B1 3.98433e-05
19 *3697:B2 *3706:A2 2.2346e-05
20 *3697:B2 *3706:C1 3.42313e-05
21 *3697:B2 *3894:I1 0.000626693
22 *3697:B2 *163:73 0.000124521
23 *3697:B2 *232:65 5.41298e-06
24 *3697:B2 *237:29 2.88698e-05
25 *3697:B2 *237:31 1.56e-05
26 *152:20 *3579:D 1.92905e-05
27 *152:20 *3580:B 1.74352e-05
28 *152:20 *3663:B 0.000157072
29 *152:20 *3718:B1 6.51946e-05
30 *152:26 *3679:A2 0.000120039
31 *152:26 *3679:C1 3.00545e-05
32 *152:26 *163:58 0.000255302
33 *152:45 *3894:I1 2.5722e-07
34 *152:45 *234:45 4.49406e-05
35 *152:45 *237:29 6.26774e-06
36 *3572:A *3574:C 3.41517e-06
37 *3572:A *152:6 9.99853e-05
38 *3579:C *152:20 9.99644e-06
39 *3662:B *3574:C 0
40 *3662:B *152:20 5.33005e-05
41 *3679:A1 *152:26 0.000105044
42 *3679:B2 *152:26 4.7168e-05
43 *3706:A1 *3697:B2 2.93936e-05
44 *53:66 *152:45 0
45 *150:14 *152:6 3.32631e-05
46 *150:14 *152:20 1.34548e-05
47 *150:22 *3574:C 1.09427e-05
48 *150:22 *152:20 9.67746e-05
*RES
1 *3572:Y *152:6 11.8893 
2 *152:6 *152:20 17.1964 
3 *152:20 *152:26 14.2321 
4 *152:26 *3686:B2 14.7018 
5 *152:26 *152:45 11.683 
6 *152:45 *3697:B2 16.1884 
7 *152:45 *3706:B2 9.3 
8 *152:20 *3663:A 10.0321 
9 *152:6 *3574:C 9.72857 
*END

*D_NET *153 0.00420073
*CONN
*I *3583:B I *D sky130_fd_sc_hd__nor2_2
*I *3685:B I *D sky130_fd_sc_hd__and3_2
*I *3574:D I *D sky130_fd_sc_hd__and4_2
*I *3578:A I *D sky130_fd_sc_hd__inv_2
*I *3573:X O *D sky130_fd_sc_hd__mux2_2
*CAP
1 *3583:B 4.86881e-05
2 *3685:B 0.000168419
3 *3574:D 9.05233e-05
4 *3578:A 0
5 *3573:X 0.000489052
6 *153:44 0.000628051
7 *153:16 0.000160336
8 *153:10 0.000969809
9 *3574:D *157:18 1.98839e-05
10 *3574:D *290:8 0
11 *3574:D *341:39 0.000147718
12 *3583:B *3585:A 7.97273e-05
13 *3583:B *232:14 0.000140714
14 *3685:B *3685:C 1.03405e-06
15 *3685:B *158:10 1.85103e-05
16 *3685:B *163:10 0
17 *153:10 *3569:A1 0
18 *153:10 *3571:A0 0
19 *153:10 *3717:D 7.83659e-05
20 *153:10 *3730:A 5.49544e-05
21 *153:10 *267:30 0.000153437
22 *153:10 *309:18 6.07614e-05
23 *153:10 *341:39 0
24 *153:16 *157:18 0.000183477
25 *3583:A *3685:B 1.00332e-05
26 *3583:A *153:44 3.41719e-05
27 *3584:A *153:16 7.57394e-05
28 *3685:A *3685:B 0.00014489
29 *3685:A *153:44 1.00332e-05
30 *4:111 *153:10 0.000108061
31 *147:18 *153:44 3.28219e-05
32 *147:35 *3583:B 3.50166e-05
33 *147:42 *153:16 6.05161e-06
34 *149:14 *153:10 0.00012401
35 *150:14 *3574:D 0.000126439
*RES
1 *3573:X *153:10 24.4786 
2 *153:10 *153:16 6.69643 
3 *153:16 *3578:A 9.3 
4 *153:16 *3574:D 20.7821 
5 *153:10 *153:44 8.16802 
6 *153:44 *3685:B 17.0991 
7 *153:44 *3583:B 16.0143 
*END

*D_NET *154 0.00263256
*CONN
*I *3718:C1 I *D sky130_fd_sc_hd__a311oi_2
*I *3720:A2 I *D sky130_fd_sc_hd__a21o_2
*I *3575:B I *D sky130_fd_sc_hd__nand2_2
*I *3574:X O *D sky130_fd_sc_hd__and4_2
*CAP
1 *3718:C1 0.000386799
2 *3720:A2 1.4954e-05
3 *3575:B 0
4 *3574:X 0.000357573
5 *154:21 0.00055255
6 *154:12 0.000508371
7 *3718:C1 *3718:A1 0
8 *3718:C1 *3718:B1 2.65319e-06
9 *3718:C1 *3720:B1 0.000227969
10 *3718:C1 *3722:A1 3.48023e-05
11 *3720:A2 *3720:B1 9.9724e-06
12 *154:12 *3665:A0 2.16315e-05
13 *154:12 *290:8 0
14 *154:12 *341:39 0.000173097
15 *154:12 *341:45 0.000323705
16 *3721:A1 *3718:C1 1.84876e-05
*RES
1 *3574:X *154:12 25.6393 
2 *154:12 *3575:B 9.3 
3 *154:12 *154:21 2.60714 
4 *154:21 *3720:A2 9.72857 
5 *154:21 *3718:C1 24.3536 
*END

*D_NET *155 0.00165308
*CONN
*I *3576:S I *D sky130_fd_sc_hd__mux2_2
*I *3575:Y O *D sky130_fd_sc_hd__nand2_2
*CAP
1 *3576:S 0.000327462
2 *3575:Y 0.000327462
3 *3576:S *3586:A 2.11419e-05
4 *3576:S *3720:A1 0.000267814
5 *3576:S *267:30 0.000357333
6 *3576:A1 *3576:S 3.67142e-05
7 *3702:A *3576:S 0.000315152
*RES
1 *3575:Y *3576:S 36.7607 
*END

*D_NET *156 0.000683585
*CONN
*I *3577:A I *D sky130_fd_sc_hd__buf_1
*I *3576:X O *D sky130_fd_sc_hd__mux2_2
*CAP
1 *3577:A 0.000220323
2 *3576:X 0.000220323
3 *3577:A *165:16 8.00806e-05
4 *3577:A *294:23 0
5 *3577:A *294:25 0.000141132
6 *3702:A *3577:A 2.17258e-05
7 *4:39 *3577:A 0
*RES
1 *3576:X *3577:A 31.5911 
*END

*D_NET *157 0.00248407
*CONN
*I *3678:C I *D sky130_fd_sc_hd__and4_2
*I *3579:D I *D sky130_fd_sc_hd__and4_2
*I *3663:B I *D sky130_fd_sc_hd__nor2_2
*I *3578:Y O *D sky130_fd_sc_hd__inv_2
*CAP
1 *3678:C 0
2 *3579:D 6.69016e-05
3 *3663:B 0.000149189
4 *3578:Y 0.000290109
5 *157:20 0.000255059
6 *157:18 0.000329078
7 *3579:D *158:10 6.05161e-06
8 *3663:B *3580:B 1.33343e-05
9 *3663:B *3685:C 9.25014e-06
10 *3663:B *3718:B1 3.87941e-05
11 *3663:B *158:10 0.000175519
12 *3663:B *221:6 2.14757e-05
13 *157:18 *3585:A 0.000114803
14 *157:18 *231:8 4.45694e-05
15 *157:20 *3685:C 0.000116481
16 *157:20 *231:8 1.02504e-05
17 *3574:D *157:18 1.98839e-05
18 *3579:B *3579:D 0
19 *3579:C *3579:D 5.71472e-05
20 *3579:C *3663:B 1.02504e-05
21 *3579:C *157:20 8.00806e-05
22 *3584:B *157:18 0.000182592
23 *3662:B *3663:B 0
24 *3685:A *3663:B 6.8646e-06
25 *147:42 *157:18 2.58821e-05
26 *151:25 *157:18 5.32956e-05
27 *151:25 *157:20 4.73656e-05
28 *152:20 *3579:D 1.92905e-05
29 *152:20 *3663:B 0.000157072
30 *153:16 *157:18 0.000183477
*RES
1 *3578:Y *157:18 20.2821 
2 *157:18 *157:20 1.64286 
3 *157:20 *3663:B 17.925 
4 *157:20 *3579:D 15.175 
5 *157:18 *3678:C 13.8 
*END

*D_NET *158 0.00307835
*CONN
*I *3580:B I *D sky130_fd_sc_hd__nand2_2
*I *3720:B1 I *D sky130_fd_sc_hd__a21o_2
*I *3721:A2 I *D sky130_fd_sc_hd__a21o_2
*I *3579:X O *D sky130_fd_sc_hd__and4_2
*CAP
1 *3580:B 0.00020255
2 *3720:B1 0.000263572
3 *3721:A2 1.40568e-05
4 *3579:X 0.000172987
5 *158:12 0.000404168
6 *158:10 0.000502077
7 *3580:B *3580:A 5.33005e-05
8 *3580:B *3664:A 0.000224764
9 *3580:B *3664:B 8.43535e-06
10 *3580:B *220:6 6.63048e-05
11 *3580:B *221:6 0.000265806
12 *3720:B1 *3718:B1 4.42832e-06
13 *3720:B1 *3722:A1 0.000169125
14 *3720:B1 *267:30 0
15 *3720:B1 *342:22 4.21517e-05
16 *3721:A2 *3894:I1 2.89016e-05
17 *158:10 *3685:C 3.69047e-06
18 *158:10 *3718:B1 0
19 *158:10 *163:10 0
20 *158:12 *3718:B1 0
21 *158:12 *163:10 0
22 *3579:D *158:10 6.05161e-06
23 *3662:B *3580:B 1.04232e-05
24 *3663:B *3580:B 1.33343e-05
25 *3663:B *158:10 0.000175519
26 *3685:B *158:10 1.85103e-05
27 *3718:C1 *3720:B1 0.000227969
28 *3720:A2 *3720:B1 9.9724e-06
29 *3721:A1 *3580:B 0.000117591
30 *3721:A1 *3721:A2 5.52238e-05
31 *152:20 *3580:B 1.74352e-05
*RES
1 *3579:X *158:10 17.1929 
2 *158:10 *158:12 1.94643 
3 *158:12 *3721:A2 14.3357 
4 *158:12 *3720:B1 19.2107 
5 *158:10 *3580:B 20.3536 
*END

*D_NET *159 0.00142715
*CONN
*I *3581:S I *D sky130_fd_sc_hd__mux2_2
*I *3580:Y O *D sky130_fd_sc_hd__nand2_2
*CAP
1 *3581:S 0.000405488
2 *3580:Y 0.000405488
3 *3581:S *290:8 0.000124083
4 *3581:S *341:39 0
5 *3581:A1 *3581:S 3.42509e-05
6 *3721:A1 *3581:S 0.000143375
7 *4:71 *3581:S 0.000314466
*RES
1 *3580:Y *3581:S 35.6536 
*END

*D_NET *160 0.0003798
*CONN
*I *3582:A I *D sky130_fd_sc_hd__buf_1
*I *3581:X O *D sky130_fd_sc_hd__mux2_2
*CAP
1 *3582:A 0.00016494
2 *3581:X 0.00016494
3 *3859:D *3582:A 1.32056e-05
4 *31:10 *3582:A 3.67142e-05
*RES
1 *3581:X *3582:A 30.4929 
*END

*D_NET *161 0.00243781
*CONN
*I *3584:C I *D sky130_fd_sc_hd__and3_2
*I *3717:C I *D sky130_fd_sc_hd__and4_2
*I *3583:Y O *D sky130_fd_sc_hd__nor2_2
*CAP
1 *3584:C 0.000349603
2 *3717:C 0
3 *3583:Y 0.00027946
4 *161:14 0.000629063
5 *3584:C *3717:D 4.13037e-05
6 *3584:C *3718:B1 0.000187661
7 *3584:C *231:8 1.00375e-05
8 *3584:C *267:30 3.32354e-05
9 *3579:C *3584:C 1.02504e-05
10 *3583:A *3584:C 7.48301e-06
11 *3583:A *161:14 6.50121e-05
12 *3584:A *3584:C 4.25176e-05
13 *3717:A *3584:C 0
14 *3717:A *161:14 0.000120604
15 *3717:B *161:14 5.52238e-05
16 *5:47 *161:14 0.000173601
17 *147:35 *3584:C 5.33005e-05
18 *147:42 *3584:C 0.000125547
19 *151:6 *3584:C 3.89315e-05
20 *151:25 *3584:C 0.000214977
*RES
1 *3583:Y *161:14 24.3893 
2 *161:14 *3717:C 9.3 
3 *161:14 *3584:C 25.4429 
*END

*D_NET *162 0.00113352
*CONN
*I *3585:A I *D sky130_fd_sc_hd__buf_1
*I *3584:X O *D sky130_fd_sc_hd__and3_2
*CAP
1 *3585:A 0.000334656
2 *3584:X 0.000334656
3 *3585:A *232:14 5.21387e-05
4 *3583:B *3585:A 7.97273e-05
5 *147:35 *3585:A 0.000164236
6 *147:42 *3585:A 5.33005e-05
7 *157:18 *3585:A 0.000114803
*RES
1 *3584:X *3585:A 25.7071 
*END

*D_NET *163 0.0105792
*CONN
*I *3721:B1 I *D sky130_fd_sc_hd__a21o_2
*I *3711:A2 I *D sky130_fd_sc_hd__a211o_2
*I *3679:A2 I *D sky130_fd_sc_hd__a221o_2
*I *3691:A2 I *D sky130_fd_sc_hd__a221o_2
*I *3706:A2 I *D sky130_fd_sc_hd__a221o_2
*I *3702:B I *D sky130_fd_sc_hd__and3_2
*I *3697:A2 I *D sky130_fd_sc_hd__a221o_2
*I *3686:A2 I *D sky130_fd_sc_hd__a221o_2
*I *3586:B I *D sky130_fd_sc_hd__and2_2
*I *3724:A2 I *D sky130_fd_sc_hd__a211o_2
*I *3585:X O *D sky130_fd_sc_hd__buf_1
*CAP
1 *3721:B1 5.68332e-05
2 *3711:A2 0
3 *3679:A2 5.23896e-05
4 *3691:A2 0.000430883
5 *3706:A2 7.33799e-06
6 *3702:B 0.000346295
7 *3697:A2 3.28046e-05
8 *3686:A2 4.99512e-05
9 *3586:B 0.000230701
10 *3724:A2 5.16496e-05
11 *3585:X 0.000407732
12 *163:73 0.000422747
13 *163:71 0.000134967
14 *163:67 0.000514865
15 *163:58 0.000237795
16 *163:56 0.000377881
17 *163:48 0.000733008
18 *163:14 0.000416822
19 *163:12 0.00079705
20 *163:10 0.000531783
21 *3586:B *3587:A 0.000181489
22 *3586:B *3715:A 0
23 *3586:B *3724:A1 7.69776e-06
24 *3586:B *165:16 8.00806e-05
25 *3686:A2 *234:45 5.33005e-05
26 *3691:A2 *3686:B1 4.96042e-06
27 *3691:A2 *3691:B1 7.70668e-05
28 *3691:A2 *232:44 5.0937e-05
29 *3691:A2 *232:65 2.21972e-05
30 *3697:A2 *3697:B1 6.08961e-05
31 *3702:B *3699:A2 0.000197991
32 *3702:B *3700:B2 0.000168961
33 *3702:B *3702:C 5.39629e-06
34 *3702:B *3707:A1 1.50795e-05
35 *3702:B *3714:A 7.83659e-05
36 *3702:B *3781:A 6.1976e-05
37 *3702:B *3887:A 9.11365e-06
38 *3702:B *323:14 7.2754e-05
39 *3721:B1 *3894:I1 0.0001475
40 *3724:A2 *3724:A1 0.000185394
41 *3724:A2 *3725:A1_N 6.8529e-05
42 *3724:A2 *3725:A2_N 0.000100261
43 *163:10 *3715:A 0
44 *163:10 *3755:A 0
45 *163:12 *3715:A 0
46 *163:12 *342:22 0
47 *163:14 *3715:A 0
48 *163:14 *3722:B1_N 0
49 *163:48 *3706:C1 1.19191e-05
50 *163:48 *3724:B1 0
51 *163:48 *3894:I1 0.000735548
52 *163:56 *3706:C1 0.000107884
53 *163:56 *3894:I1 4.48647e-05
54 *163:56 *237:29 0.000137561
55 *163:58 *234:45 8.17274e-05
56 *163:71 *3700:B2 5.32039e-05
57 *163:71 *3887:A 0.000163753
58 *163:71 *234:45 2.95642e-05
59 *163:73 *3697:B1 6.05161e-06
60 *163:73 *237:31 3.37161e-05
61 *3685:B *163:10 0
62 *3686:B2 *3686:A2 0.000115045
63 *3686:B2 *163:58 0.000225609
64 *3691:A1 *3691:A2 6.28083e-05
65 *3691:A1 *3702:B 6.6158e-05
66 *3697:B2 *3697:A2 0.000117937
67 *3697:B2 *3706:A2 2.2346e-05
68 *3697:B2 *163:73 0.000124521
69 *3706:A1 *3706:A2 3.3757e-05
70 *3706:A1 *163:71 2.95642e-05
71 *3706:A1 *163:73 5.33005e-05
72 *3894:select *3691:A2 3.53662e-05
73 *5:10 *163:10 0
74 *5:47 *163:10 5.10822e-05
75 *13:46 *3702:B 4.44173e-05
76 *46:47 *3691:A2 6.84159e-05
77 *49:32 *3721:B1 0.0001475
78 *49:32 *163:10 3.42301e-05
79 *53:66 *163:56 8.25365e-05
80 *152:26 *3679:A2 0.000120039
81 *152:26 *163:58 0.000255302
82 *158:10 *163:10 0
83 *158:12 *163:10 0
*RES
1 *3585:X *163:10 20.8357 
2 *163:10 *163:12 1.03571 
3 *163:12 *163:14 1.94643 
4 *163:14 *3724:A2 15.9786 
5 *163:14 *3586:B 18.8893 
6 *163:12 *163:48 21.6429 
7 *163:48 *163:56 12.6071 
8 *163:56 *163:58 4.64286 
9 *163:58 *3686:A2 10.4518 
10 *163:58 *163:67 4.5 
11 *163:67 *163:71 6.75 
12 *163:71 *163:73 1.35714 
13 *163:73 *3697:A2 10.4518 
14 *163:73 *3702:B 26.3 
15 *163:71 *3706:A2 9.63929 
16 *163:67 *3691:A2 23.1727 
17 *163:56 *3679:A2 10.4518 
18 *163:48 *3711:A2 9.3 
19 *163:10 *3721:B1 16.3893 
*END

*D_NET *164 0.000488235
*CONN
*I *3587:A I *D sky130_fd_sc_hd__buf_1
*I *3586:X O *D sky130_fd_sc_hd__and2_2
*CAP
1 *3587:A 0.000153373
2 *3586:X 0.000153373
3 *3586:B *3587:A 0.000181489
*RES
1 *3586:X *3587:A 30.1893 
*END

*D_NET *165 0.0142919
*CONN
*I *3588:S I *D sky130_fd_sc_hd__mux2_2
*I *3598:S I *D sky130_fd_sc_hd__mux2_2
*I *3596:S I *D sky130_fd_sc_hd__mux2_2
*I *3602:S I *D sky130_fd_sc_hd__mux2_2
*I *3600:S I *D sky130_fd_sc_hd__mux2_2
*I *3590:S I *D sky130_fd_sc_hd__mux2_2
*I *3594:S I *D sky130_fd_sc_hd__mux2_2
*I *3592:S I *D sky130_fd_sc_hd__mux2_2
*I *3587:X O *D sky130_fd_sc_hd__buf_1
*CAP
1 *3588:S 0.000409029
2 *3598:S 4.77751e-05
3 *3596:S 0.000326744
4 *3602:S 0
5 *3600:S 0
6 *3590:S 0.000146911
7 *3594:S 4.06588e-05
8 *3592:S 0.000132891
9 *3587:X 0.000829995
10 *165:98 0.000707692
11 *165:85 0.00146074
12 *165:72 0.00168588
13 *165:55 0.00153525
14 *165:22 0.000355299
15 *165:18 0.000398917
16 *165:16 0.00163273
17 *3588:S *3811:A 1.99881e-05
18 *3590:S *294:66 1.52978e-05
19 *3590:S *294:70 0.000100009
20 *3592:S *3591:A 5.52238e-05
21 *3596:S *3597:A 5.52238e-05
22 *3596:S *3807:A 0.000343203
23 *3598:S *3598:A1 5.52302e-05
24 *165:16 *3715:A 0
25 *165:16 *294:66 0
26 *165:18 *3820:CLK 0.000173387
27 *165:22 *3820:CLK 9.66977e-05
28 *165:22 *289:29 6.57032e-05
29 *165:72 *3600:A1 7.83587e-05
30 *165:72 *3744:A1 0.000105689
31 *165:85 *289:54 1.98839e-05
32 *165:98 *3598:A1 0
33 *165:98 *3807:A 4.73656e-05
34 pll_trim[3] *3596:S 2.61337e-05
35 prod_id[2] *165:98 0
36 *3577:A *165:16 8.00806e-05
37 *3586:B *165:16 8.00806e-05
38 *3588:A1 *3588:S 5.60962e-05
39 *3598:A0 *3598:S 6.05161e-06
40 *3600:A0 *165:55 2.89114e-05
41 *3602:A0 *165:72 7.20217e-06
42 *3602:A0 *165:85 3.08664e-05
43 *3702:A *165:72 0.0001252
44 *3702:A *165:85 4.42575e-05
45 *3820:D *165:55 7.57312e-05
46 *3822:D *165:72 0
47 *3851:RESET_B *165:98 0.000177941
48 *3854:RESET_B *3596:S 0
49 *3858:D *3588:S 0.00013464
50 *3858:SET_B *3588:S 0
51 *3860:D *165:16 0
52 *3860:RESET_B *165:16 6.80593e-05
53 *4:39 *165:16 0
54 *4:58 *165:16 0
55 *16:28 *165:16 0
56 *34:30 *3592:S 8.07951e-05
57 *34:30 *3594:S 0.000169405
58 *34:30 *165:22 4.33174e-05
59 *34:30 *165:55 0.000577046
60 *36:16 *3596:S 5.70784e-05
61 *36:41 *165:85 0.000963882
62 *46:47 *3592:S 0.000216304
63 *46:47 *3594:S 0.000177948
64 *49:14 *3588:S 9.21933e-05
65 *49:32 *3588:S 3.08664e-05
*RES
1 *3587:X *165:16 32.8714 
2 *165:16 *165:18 1.76786 
3 *165:18 *165:22 7.91071 
4 *165:22 *3592:S 17.1929 
5 *165:22 *3594:S 16.05 
6 *165:18 *3590:S 21.1571 
7 *165:16 *165:55 15.3214 
8 *165:55 *3600:S 9.3 
9 *165:55 *165:72 21.8929 
10 *165:72 *3602:S 9.3 
11 *165:72 *165:85 17.0893 
12 *165:85 *3596:S 21.1393 
13 *165:85 *165:98 5.28571 
14 *165:98 *3598:S 14.7464 
15 *165:98 *3588:S 21.6214 
*END

*D_NET *166 0.000350135
*CONN
*I *3589:A I *D sky130_fd_sc_hd__buf_1
*I *3588:X O *D sky130_fd_sc_hd__mux2_2
*CAP
1 *3589:A 3.07275e-05
2 *3588:X 3.07275e-05
3 *3589:A *3811:A 5.71472e-05
4 *3858:D *3589:A 5.15193e-05
5 *49:14 *3589:A 0.000180014
*RES
1 *3588:X *3589:A 20.2875 
*END

*D_NET *167 0.000992385
*CONN
*I *3591:A I *D sky130_fd_sc_hd__buf_1
*I *3590:X O *D sky130_fd_sc_hd__mux2_2
*CAP
1 *3591:A 0.000206044
2 *3590:X 0.000206044
3 *3591:A *3592:A1 0.000180764
4 *3591:A *3593:A 9.99853e-05
5 *3590:A0 *3591:A 1.58163e-05
6 *3592:S *3591:A 5.52238e-05
7 *37:14 *3591:A 0.000228508
*RES
1 *3590:X *3591:A 23.975 
*END

*D_NET *168 0.000507123
*CONN
*I *3593:A I *D sky130_fd_sc_hd__buf_1
*I *3592:X O *D sky130_fd_sc_hd__mux2_2
*CAP
1 *3593:A 0.00015624
2 *3592:X 0.00015624
3 *3591:A *3593:A 9.99853e-05
4 *37:14 *3593:A 9.46571e-05
*RES
1 *3592:X *3593:A 22.0464 
*END

*D_NET *169 0.000558729
*CONN
*I *3595:A I *D sky130_fd_sc_hd__buf_1
*I *3594:X O *D sky130_fd_sc_hd__mux2_2
*CAP
1 *3595:A 0.000143852
2 *3594:X 0.000143852
3 *3594:A0 *3595:A 0.000271026
*RES
1 *3594:X *3595:A 21.9214 
*END

*D_NET *170 0.000699988
*CONN
*I *3597:A I *D sky130_fd_sc_hd__buf_1
*I *3596:X O *D sky130_fd_sc_hd__mux2_2
*CAP
1 *3597:A 0.000207449
2 *3596:X 0.000207449
3 *3597:A *3596:A1 0.000185541
4 *3596:S *3597:A 5.52238e-05
5 *36:16 *3597:A 4.43256e-05
*RES
1 *3596:X *3597:A 23.1536 
*END

*D_NET *171 0.00170693
*CONN
*I *3599:A I *D sky130_fd_sc_hd__buf_1
*I *3598:X O *D sky130_fd_sc_hd__mux2_2
*CAP
1 *3599:A 0.000568318
2 *3598:X 0.000568318
3 *3599:A *3598:A1 2.26132e-05
4 *3599:A *286:27 0.000247764
5 *3599:A *295:10 9.60875e-05
6 *3599:A *295:18 9.25014e-06
7 *3598:A0 *3599:A 7.8195e-05
8 *3851:D *3599:A 9.80173e-05
9 *3853:RESET_B *3599:A 1.83626e-05
*RES
1 *3598:X *3599:A 36.7607 
*END

*D_NET *172 0.000432264
*CONN
*I *3601:A I *D sky130_fd_sc_hd__buf_1
*I *3600:X O *D sky130_fd_sc_hd__mux2_2
*CAP
1 *3601:A 0.000170896
2 *3600:X 0.000170896
3 *3823:D *3601:A 0
4 *34:12 *3601:A 0
5 *34:30 *3601:A 9.0471e-05
*RES
1 *3600:X *3601:A 30.2339 
*END

*D_NET *173 0.000284818
*CONN
*I *3603:A I *D sky130_fd_sc_hd__buf_1
*I *3602:X O *D sky130_fd_sc_hd__mux2_2
*CAP
1 *3603:A 2.97149e-05
2 *3602:X 2.97149e-05
3 *3603:A *289:54 6.46083e-05
4 *36:41 *3603:A 0.00016078
*RES
1 *3602:X *3603:A 20.2786 
*END

*D_NET *174 0.0106737
*CONN
*I *3732:A2 I *D sky130_fd_sc_hd__a21oi_2
*I *3734:A I *D sky130_fd_sc_hd__nor2_2
*I *3762:A1 I *D sky130_fd_sc_hd__o22ai_2
*I *3738:B I *D sky130_fd_sc_hd__or2_2
*I *3624:A I *D sky130_fd_sc_hd__nand2_2
*I *3633:B I *D sky130_fd_sc_hd__nand2_2
*I *3667:C I *D sky130_fd_sc_hd__nor3_2
*I *3607:A I *D sky130_fd_sc_hd__nor2_2
*I *3726:B1 I *D sky130_fd_sc_hd__a21o_2
*I *3604:Y O *D sky130_fd_sc_hd__inv_2
*CAP
1 *3732:A2 9.85696e-05
2 *3734:A 0
3 *3762:A1 0.000329152
4 *3738:B 0
5 *3624:A 1.80718e-05
6 *3633:B 1.5139e-05
7 *3667:C 0
8 *3607:A 0.00036899
9 *3726:B1 0.000164259
10 *3604:Y 0
11 *174:112 0.000475652
12 *174:108 0.000275313
13 *174:101 0.000155032
14 *174:48 0.000637074
15 *174:44 0.000849747
16 *174:26 0.00193024
17 *174:6 0.00131494
18 *174:4 0.000252474
19 *3607:A *176:72 0.000145477
20 *3607:A *296:25 0
21 *3607:A *296:36 0
22 *3624:A *3624:B 3.41517e-06
23 *3633:B *3657:C1 0
24 *3726:B1 *3622:A 4.65096e-05
25 *3726:B1 *3731:A1 4.73286e-05
26 *3726:B1 *175:16 4.82294e-05
27 *3732:A2 *3736:B 0.000137873
28 *3732:A2 *3739:B2 5.52302e-05
29 *3762:A1 *3568:A0 0
30 *3762:A1 *3623:A1 5.50616e-05
31 *3762:A1 *3730:A 0.000201137
32 *3762:A1 *3760:A2 1.58163e-05
33 *3762:A1 *3762:A2 5.38444e-06
34 *3762:A1 *3762:B2 1.32056e-05
35 *3762:A1 *188:77 3.42426e-05
36 *3762:A1 *338:20 1.57523e-05
37 *174:6 *3736:B 2.84109e-05
38 *174:6 *337:80 3.56849e-05
39 *174:26 *3657:B1 4.665e-05
40 *174:26 *3657:C1 1.58163e-05
41 *174:26 *3660:A0 7.6644e-05
42 *174:26 *3731:B1 1.42752e-05
43 *174:26 *3792:A 0
44 *174:26 *190:14 0.000151268
45 *174:26 *308:8 0.000143364
46 *174:26 *309:18 0.000265378
47 *174:26 *337:80 1.02911e-05
48 *174:44 *3610:A2 2.36643e-05
49 *174:44 *3610:A3 1.21258e-05
50 *174:44 *3610:B1 6.10501e-05
51 *174:44 *3622:A 0.000113038
52 *174:44 *3657:B1 5.96516e-05
53 *174:44 *179:6 0.000288033
54 *174:44 *179:35 0.000322818
55 *174:44 *198:10 2.84026e-05
56 *174:44 *296:36 2.10446e-05
57 *174:44 *296:55 5.27916e-05
58 *174:44 *316:6 0.000105983
59 *174:48 *3622:A 0.000152333
60 *174:48 *296:36 6.67322e-05
61 *174:101 *3736:B 0.000141986
62 *174:108 *3736:B 2.12005e-05
63 *174:112 *3568:A0 0
64 *3610:A1 *174:44 0.000282765
65 *3738:A *174:112 3.34295e-05
66 *3839:D *174:26 0.000182875
67 *31:48 *3762:A1 0.000129026
68 *31:48 *174:112 7.76647e-05
*RES
1 *3604:Y *174:4 9.3 
2 *174:4 *174:6 2.17857 
3 *174:6 *174:26 26.5714 
4 *174:26 *174:44 21.125 
5 *174:44 *174:48 2.9375 
6 *174:48 *3726:B1 17.2375 
7 *174:48 *3607:A 20.3089 
8 *174:44 *3667:C 13.8 
9 *174:26 *3633:B 9.72857 
10 *174:6 *3624:A 9.72857 
11 *174:4 *174:101 2.58929 
12 *174:101 *3738:B 9.3 
13 *174:101 *174:108 0.535714 
14 *174:108 *174:112 7.66071 
15 *174:112 *3762:A1 21.2107 
16 *174:112 *3734:A 13.8 
17 *174:108 *3732:A2 11.6214 
*END

*D_NET *175 0.00234686
*CONN
*I *3726:A2 I *D sky130_fd_sc_hd__a21o_2
*I *3606:B I *D sky130_fd_sc_hd__or2_2
*I *3680:B I *D sky130_fd_sc_hd__nor2_2
*I *3605:X O *D sky130_fd_sc_hd__or2_2
*CAP
1 *3726:A2 0
2 *3606:B 0
3 *3680:B 0.000108096
4 *3605:X 0.000546319
5 *175:22 0.00020478
6 *175:16 0.000643003
7 *3680:B *3606:A 5.65955e-05
8 *3680:B *3680:A 2.2549e-05
9 *3680:B *3850:CLK 0.000127057
10 *3680:B *176:10 6.94981e-05
11 *3680:B *176:72 7.55799e-05
12 *3680:B *234:12 5.33005e-05
13 *175:16 *3605:A 3.1521e-05
14 *175:16 *3667:A 3.69047e-06
15 *175:16 *3731:A1 3.50166e-05
16 *175:16 *224:8 5.17614e-05
17 *175:16 *317:20 1.48509e-05
18 *175:16 *318:12 4.69852e-05
19 *175:16 *318:14 5.49544e-05
20 *175:22 *3606:A 5.33614e-05
21 *175:22 *318:29 9.97164e-05
22 *3726:B1 *175:16 4.82294e-05
*RES
1 *3605:X *175:16 26.2643 
2 *175:16 *175:22 10.9464 
3 *175:22 *3680:B 13.1571 
4 *175:22 *3606:B 9.3 
5 *175:16 *3726:A2 9.3 
*END

*D_NET *176 0.0124641
*CONN
*I *3679:C1 I *D sky130_fd_sc_hd__a221o_2
*I *3724:B1 I *D sky130_fd_sc_hd__a211o_2
*I *3711:B1 I *D sky130_fd_sc_hd__a211o_2
*I *3607:B I *D sky130_fd_sc_hd__nor2_2
*I *3684:B I *D sky130_fd_sc_hd__and2_2
*I *3691:C1 I *D sky130_fd_sc_hd__a221o_2
*I *3696:B I *D sky130_fd_sc_hd__and2_2
*I *3703:A2 I *D sky130_fd_sc_hd__a211o_2
*I *3606:X O *D sky130_fd_sc_hd__or2_2
*CAP
1 *3679:C1 2.25609e-05
2 *3724:B1 0.000399626
3 *3711:B1 4.73358e-05
4 *3607:B 0
5 *3684:B 0.000117486
6 *3691:C1 8.01449e-05
7 *3696:B 0.000135541
8 *3703:A2 0.000239159
9 *3606:X 0
10 *176:87 0.000662735
11 *176:83 0.000893347
12 *176:72 0.00107187
13 *176:16 0.000514741
14 *176:12 0.00055036
15 *176:10 0.00175767
16 *176:4 0.00172686
17 *3684:B *3684:A 5.52238e-05
18 *3684:B *3689:B1 0.00010096
19 *3684:B *293:21 0.00014285
20 *3691:C1 *230:32 2.84109e-05
21 *3691:C1 *232:35 0
22 *3691:C1 *232:65 0
23 *3696:B *3700:B1 2.84026e-05
24 *3696:B *3894:I1 0.00016515
25 *3703:A2 *3703:A1 6.21768e-05
26 *3703:A2 *3704:B1 0.000100823
27 *3703:A2 *3708:A0 9.22948e-05
28 *3703:A2 *3709:A 3.81e-05
29 *3703:A2 *3713:S 0
30 *3703:A2 *230:38 4.51169e-05
31 *3703:A2 *324:10 1.02504e-05
32 *3711:B1 *3706:C1 0
33 *3711:B1 *232:85 0
34 *3724:B1 *3724:A1 1.97695e-05
35 *3724:B1 *3725:A2_N 1.21258e-05
36 *176:10 *3787:A 7.80714e-06
37 *176:10 *3835:CLK 5.01117e-05
38 *176:10 *3889:A 1.02504e-05
39 *176:10 *230:24 0
40 *176:10 *234:12 0.000181796
41 *176:10 *293:21 0.000124342
42 *176:10 *327:8 0
43 *176:12 *3693:A0 0
44 *176:12 *3700:A1 3.75448e-05
45 *176:12 *3769:A 4.33438e-05
46 *176:12 *3889:A 0.0002653
47 *176:12 *230:32 0
48 *176:12 *291:10 6.27272e-06
49 *176:16 *3769:A 3.17148e-05
50 *176:16 *230:38 6.19064e-05
51 *176:16 *232:65 0
52 *176:72 *3850:CLK 1.13883e-05
53 *176:72 *296:25 6.31627e-05
54 *176:83 *3608:S 2.56694e-05
55 *176:83 *3609:A 0.000186387
56 *176:83 *3715:A 7.79781e-06
57 *176:83 *3755:A 0.000155329
58 *176:83 *227:43 0.000184745
59 *176:83 *232:85 0.000109664
60 *176:83 *237:16 0.000150632
61 *176:87 *3706:C1 0.000125724
62 *176:87 *237:16 3.65627e-05
63 *3607:A *176:72 0.000145477
64 *3679:B2 *3679:C1 7.32182e-05
65 *3680:B *176:10 6.94981e-05
66 *3680:B *176:72 7.55799e-05
67 *3691:B2 *3691:C1 5.68713e-05
68 *3691:B2 *3703:A2 7.71819e-05
69 *3691:B2 *176:16 6.28601e-05
70 *3724:C1 *3724:B1 5.34688e-05
71 *3817:D *176:83 7.07908e-05
72 *3817:RESET_B *176:83 5.56943e-05
73 *3829:D *3724:B1 9.25014e-06
74 *3835:D *176:10 0.000129868
75 *3836:RESET_B *176:83 9.11365e-06
76 *3850:RESET_B *176:83 0.000100831
77 *14:56 *3703:A2 0
78 *16:28 *176:87 0
79 *34:30 *3724:B1 0.000236178
80 *46:47 *3724:B1 8.44271e-06
81 *46:47 *176:87 7.69776e-06
82 *48:13 *3684:B 9.93135e-05
83 *53:46 *3724:B1 9.41642e-05
84 *152:26 *3679:C1 3.00545e-05
85 *163:48 *3724:B1 0
*RES
1 *3606:X *176:4 9.3 
2 *176:4 *176:10 23.8214 
3 *176:10 *176:12 7.10714 
4 *176:12 *176:16 3.39286 
5 *176:16 *3703:A2 19.4429 
6 *176:16 *3696:B 16.8 
7 *176:12 *3691:C1 15.6036 
8 *176:10 *3684:B 17.6571 
9 *176:4 *176:72 15.1786 
10 *176:72 *3607:B 9.3 
11 *176:72 *176:83 20.9643 
12 *176:83 *176:87 3.19643 
13 *176:87 *3711:B1 14.3357 
14 *176:87 *3724:B1 20.175 
15 *176:83 *3679:C1 14.7777 
*END

*D_NET *177 0.00142031
*CONN
*I *3608:S I *D sky130_fd_sc_hd__mux2_2
*I *3607:Y O *D sky130_fd_sc_hd__nor2_2
*CAP
1 *3608:S 0.000417376
2 *3607:Y 0.000417376
3 *3608:S *3763:A 0.000131944
4 *3608:S *340:6 0.000281652
5 *3608:A1 *3608:S 5.68722e-05
6 *3850:RESET_B *3608:S 8.94203e-05
7 *176:83 *3608:S 2.56694e-05
*RES
1 *3607:Y *3608:S 35.3679 
*END

*D_NET *178 0.00153132
*CONN
*I *3609:A I *D sky130_fd_sc_hd__buf_1
*I *3608:X O *D sky130_fd_sc_hd__mux2_2
*CAP
1 *3609:A 0.000448797
2 *3608:X 0.000448797
3 *3609:A *3675:A 8.25843e-06
4 *3609:A *3756:A1 0
5 *3609:A *3756:A2 0.000104442
6 *3609:A *3763:A 0.000137094
7 *3609:A *227:43 0.000134513
8 *3817:D *3609:A 6.30292e-05
9 *176:83 *3609:A 0.000186387
*RES
1 *3608:X *3609:A 36.6 
*END

*D_NET *179 0.00356854
*CONN
*I *3611:B I *D sky130_fd_sc_hd__nand2_2
*I *3613:B I *D sky130_fd_sc_hd__or2_2
*I *3618:A_N I *D sky130_fd_sc_hd__and2b_2
*I *3610:X O *D sky130_fd_sc_hd__o31a_2
*CAP
1 *3611:B 0
2 *3613:B 0.000160887
3 *3618:A_N 0.00015431
4 *3610:X 0.000244582
5 *179:35 0.0006538
6 *179:6 0.000891806
7 *3613:B *3611:A 5.49544e-05
8 *3613:B *227:20 0.000220242
9 *3613:B *317:12 0
10 *3613:B *317:20 0
11 *3618:A_N *3619:A 0
12 *3618:A_N *3840:CLK 3.1367e-05
13 *3618:A_N *296:55 4.15914e-05
14 *179:35 *3611:A 0.000218518
15 *3847:D *179:35 0.000102362
16 *3847:RESET_B *3618:A_N 0.000131952
17 *3847:RESET_B *179:35 5.13134e-05
18 *174:44 *179:6 0.000288033
19 *174:44 *179:35 0.000322818
*RES
1 *3610:X *179:6 12.7107 
2 *179:6 *3618:A_N 21.2464 
3 *179:6 *179:35 12.4286 
4 *179:35 *3613:B 22.2286 
5 *179:35 *3611:B 9.3 
*END

*D_NET *180 0.0011852
*CONN
*I *3614:A I *D sky130_fd_sc_hd__and2_2
*I *3612:B I *D sky130_fd_sc_hd__xnor2_2
*I *3611:Y O *D sky130_fd_sc_hd__nand2_2
*CAP
1 *3614:A 0
2 *3612:B 0.000273703
3 *3611:Y 3.72704e-05
4 *180:6 0.000310973
5 *3612:B *3614:B 0.000179656
6 *3612:B *3849:CLK 0
7 *3612:B *227:20 0.000379465
8 *3612:B *227:24 4.1331e-06
9 *3849:D *3612:B 0
*RES
1 *3611:Y *180:6 9.83571 
2 *180:6 *3612:B 26.3714 
3 *180:6 *3614:A 9.3 
*END

*D_NET *181 0.000450705
*CONN
*I *3614:B I *D sky130_fd_sc_hd__and2_2
*I *3613:X O *D sky130_fd_sc_hd__or2_2
*CAP
1 *3614:B 0.000135525
2 *3613:X 0.000135525
3 *3614:B *3849:CLK 0
4 *3614:B *227:20 0
5 *3612:B *3614:B 0.000179656
*RES
1 *3613:X *3614:B 30.6893 
*END

*D_NET *182 0.000218104
*CONN
*I *3615:A I *D sky130_fd_sc_hd__buf_1
*I *3614:X O *D sky130_fd_sc_hd__and2_2
*CAP
1 *3615:A 9.33676e-05
2 *3614:X 9.33676e-05
3 *3848:D *3615:A 3.13687e-05
*RES
1 *3614:X *3615:A 20.3679 
*END

*D_NET *183 0.013874
*CONN
*I *3633:A I *D sky130_fd_sc_hd__nand2_2
*I *3760:A1 I *D sky130_fd_sc_hd__a22o_2
*I *3757:A0 I *D sky130_fd_sc_hd__mux2_2
*I *3642:A2 I *D sky130_fd_sc_hd__a22o_2
*I *3639:S I *D sky130_fd_sc_hd__mux2_2
*I *3631:B2 I *D sky130_fd_sc_hd__o221a_2
*I *3647:A2 I *D sky130_fd_sc_hd__a22o_2
*I *3652:A2 I *D sky130_fd_sc_hd__a22o_2
*I *3659:S I *D sky130_fd_sc_hd__mux2_2
*I *3617:B I *D sky130_fd_sc_hd__or4_2
*I *3616:X O *D sky130_fd_sc_hd__buf_1
*CAP
1 *3633:A 2.62414e-05
2 *3760:A1 0.000204304
3 *3757:A0 0.000133449
4 *3642:A2 5.77809e-05
5 *3639:S 0
6 *3631:B2 0.000272304
7 *3647:A2 0.000478266
8 *3652:A2 8.89619e-06
9 *3659:S 4.13964e-05
10 *3617:B 0.000243216
11 *3616:X 0.000378286
12 *183:107 0.000988342
13 *183:80 0.000449057
14 *183:63 0.000841042
15 *183:52 0.000610114
16 *183:50 0.00129735
17 *183:33 0.000580467
18 *183:16 0.000582881
19 *183:12 0.000494472
20 *3617:B *3617:C 2.59355e-05
21 *3617:B *337:43 7.15605e-05
22 *3631:B2 *3630:A 4.5001e-05
23 *3631:B2 *3631:B1 5.76234e-05
24 *3631:B2 *3631:C1 9.99853e-05
25 *3631:B2 *3636:A 0.000102199
26 *3631:B2 *3639:A0 0.000140933
27 *3631:B2 *3640:B1 5.86849e-05
28 *3631:B2 *3643:B2 0.000104455
29 *3642:A2 *3636:A 5.19422e-05
30 *3642:A2 *3642:B1 0.000203989
31 *3642:A2 *3643:B1 7.54606e-05
32 *3642:A2 *3643:B2 1.98839e-05
33 *3647:A2 *3647:B2 2.84026e-05
34 *3647:A2 *3842:CLK 1.17091e-05
35 *3647:A2 *311:10 3.87112e-05
36 *3652:A2 *3626:D 3.046e-05
37 *3652:A2 *3645:B 3.046e-05
38 *3659:S *3659:A0 5.52302e-05
39 *3757:A0 *3757:A1 0.000184
40 *3760:A1 *3760:B1 5.65955e-05
41 *3760:A1 *3760:B2 4.81894e-05
42 *3760:A1 *337:10 0.000110403
43 *183:12 *3638:B 2.59355e-05
44 *183:12 *288:14 0.000103983
45 *183:12 *288:16 0.000311519
46 *183:16 *3789:A 6.92148e-06
47 *183:33 *3659:A0 9.58126e-05
48 *183:33 *3660:A0 2.92601e-05
49 *183:33 *288:35 0.000234809
50 *183:33 *288:66 8.36572e-05
51 *183:33 *337:43 0.000183713
52 *183:50 *288:66 9.11536e-05
53 *183:52 *3568:A0 0
54 *183:52 *3644:B 5.80706e-06
55 *183:52 *3648:S 0
56 *183:52 *3653:A0 0.000127446
57 *183:52 *309:75 7.60306e-05
58 *183:52 *309:88 2.84494e-05
59 *183:52 *310:12 6.48863e-05
60 *183:52 *310:56 0
61 *183:63 *3638:B 3.92854e-05
62 *183:63 *3644:B 0.000124723
63 *183:63 *3647:B1 0
64 *183:63 *3648:S 0
65 *183:63 *192:10 0
66 *183:63 *192:25 0.000202835
67 *183:80 *3638:B 7.89037e-05
68 *183:80 *3639:A1 0.000171368
69 *183:80 *3642:B1 0.000185297
70 *183:80 *192:25 0.000150618
71 *183:107 *3757:A1 7.29667e-05
72 *183:107 *190:14 0
73 *183:107 *337:23 0.000258797
74 *183:107 *337:80 0.000383274
75 *3610:A1 *3633:A 5.59013e-05
76 *3610:A1 *183:12 0.000746993
77 *3623:B1 *183:107 0.000148449
78 *3738:A *3659:S 5.33433e-05
79 *3738:A *183:50 0.000194908
80 *144:34 *183:52 0
81 *144:34 *183:107 0
82 *144:58 *183:63 0
83 *147:14 *3633:A 8.22771e-05
84 *147:14 *183:16 0.000114992
*RES
1 *3616:X *183:12 25.2732 
2 *183:12 *183:16 5.99107 
3 *183:16 *3617:B 12.6214 
4 *183:16 *183:33 6.85714 
5 *183:33 *3659:S 10.675 
6 *183:33 *183:50 10.6875 
7 *183:50 *183:52 7.34821 
8 *183:52 *3652:A2 14.1036 
9 *183:52 *183:63 5.58929 
10 *183:63 *3647:A2 19.4786 
11 *183:63 *183:80 8.875 
12 *183:80 *3631:B2 16.1393 
13 *183:80 *3639:S 9.3 
14 *183:80 *3642:A2 11.6571 
15 *183:50 *183:107 13.1696 
16 *183:107 *3757:A0 16.5857 
17 *183:107 *3760:A1 18.175 
18 *183:12 *3633:A 14.9875 
*END

*D_NET *184 0.00201332
*CONN
*I *3618:B I *D sky130_fd_sc_hd__and2b_2
*I *3617:X O *D sky130_fd_sc_hd__or4_2
*CAP
1 *3618:B 0.000583264
2 *3617:X 0.000583264
3 *3618:B *3621:C 5.49489e-05
4 *3618:B *3800:A 5.41794e-05
5 *3618:B *3840:CLK 0.00027068
6 *3618:B *296:55 0
7 *3618:B *296:59 9.90367e-05
8 *3618:B *316:16 0.000101545
9 *3618:B *316:20 4.08637e-05
10 *3618:B *316:33 3.12359e-05
11 *3847:RESET_B *3618:B 2.74352e-05
12 *5:47 *3618:B 0.000166872
*RES
1 *3617:X *3618:B 38.1536 
*END

*D_NET *185 0.000322753
*CONN
*I *3619:A I *D sky130_fd_sc_hd__buf_1
*I *3618:X O *D sky130_fd_sc_hd__and2b_2
*CAP
1 *3619:A 8.89901e-05
2 *3618:X 8.89901e-05
3 *3619:A *296:59 0.000144773
4 *3618:A_N *3619:A 0
*RES
1 *3618:X *3619:A 20.6893 
*END

*D_NET *186 0.00250561
*CONN
*I *3623:A2 I *D sky130_fd_sc_hd__a31o_2
*I *3759:A I *D sky130_fd_sc_hd__or2b_2
*I *3620:X O *D sky130_fd_sc_hd__or3b_2
*CAP
1 *3623:A2 0.000398466
2 *3759:A 0
3 *3620:X 0.00021841
4 *186:12 0.000616876
5 *3623:A2 *3620:C_N 4.66203e-05
6 *3623:A2 *3623:A3 5.60962e-05
7 *3623:A2 *3735:B1 2.59355e-05
8 *3623:A2 *3814:CLK 0.000103253
9 *3623:A2 *270:12 0.000242474
10 *3623:A2 *270:25 8.43535e-06
11 *186:12 *3814:CLK 0.000174805
12 *186:12 *338:14 0.000195547
13 *186:12 *338:20 5.85866e-05
14 pll_trim[0] *3623:A2 0.000185297
15 pll_trim[0] *186:12 0.000174805
*RES
1 *3620:X *186:12 18.6571 
2 *186:12 *3759:A 13.8 
3 *186:12 *3623:A2 20.5857 
*END

*D_NET *187 0.00114804
*CONN
*I *3622:A I *D sky130_fd_sc_hd__buf_1
*I *3621:X O *D sky130_fd_sc_hd__and3_2
*CAP
1 *3622:A 0.000339969
2 *3621:X 0.000339969
3 *3622:A *3621:C 9.78579e-05
4 *3622:A *3731:A1 5.83641e-05
5 *3726:B1 *3622:A 4.65096e-05
6 *174:44 *3622:A 0.000113038
7 *174:48 *3622:A 0.000152333
*RES
1 *3621:X *3622:A 33.5821 
*END

*D_NET *188 0.0103291
*CONN
*I *3760:A2 I *D sky130_fd_sc_hd__a22o_2
*I *3762:A2 I *D sky130_fd_sc_hd__o22ai_2
*I *3623:A3 I *D sky130_fd_sc_hd__a31o_2
*I *3730:C_N I *D sky130_fd_sc_hd__or3b_2
*I *3759:B_N I *D sky130_fd_sc_hd__or2b_2
*I *3757:S I *D sky130_fd_sc_hd__mux2_2
*I *3756:C1 I *D sky130_fd_sc_hd__o211a_2
*I *3622:X O *D sky130_fd_sc_hd__buf_1
*CAP
1 *3760:A2 0.000199661
2 *3762:A2 1.90169e-05
3 *3623:A3 0.000134305
4 *3730:C_N 6.54681e-06
5 *3759:B_N 0
6 *3757:S 0.000112969
7 *3756:C1 3.83655e-05
8 *3622:X 0.000628532
9 *188:77 0.000266559
10 *188:52 0.000250999
11 *188:48 0.000525231
12 *188:44 0.000444992
13 *188:29 0.00115995
14 *188:12 0.00146324
15 *3623:A3 *3568:A0 0.000142082
16 *3623:A3 *270:12 0.000141734
17 *3730:C_N *3730:A 4.33899e-05
18 *3730:C_N *297:25 5.65955e-05
19 *3756:C1 *3756:B1 9.87617e-05
20 *3757:S *286:14 0.000252623
21 *3757:S *337:23 3.25078e-05
22 *3757:S *339:17 0.000123903
23 *3757:S *339:30 4.78056e-05
24 *3760:A2 *3760:B1 7.3814e-05
25 *3760:A2 *338:20 4.08637e-05
26 *3760:A2 *338:41 3.04117e-05
27 *3762:A2 *3762:B2 3.41517e-06
28 *188:12 *3669:S 0.000221678
29 *188:12 *3731:A1 7.37591e-05
30 *188:12 *3837:CLK 1.92905e-05
31 *188:12 *3892:A 6.27272e-06
32 *188:29 *3564:A 4.43256e-05
33 *188:29 *3568:A0 1.02821e-05
34 *188:29 *3568:A1 9.90431e-05
35 *188:29 *3573:A1 5.52302e-05
36 *188:29 *3675:A 4.88637e-05
37 *188:29 *3728:A 0.000353734
38 *188:29 *3730:A 1.49769e-05
39 *188:29 *3756:B1 0.000397727
40 *188:29 *267:6 1.07719e-05
41 *188:44 *3564:A 9.90367e-05
42 *188:44 *3568:A0 0.000181728
43 *188:44 *3730:A 9.99644e-06
44 *188:44 *3760:B2 5.49544e-05
45 *188:48 *3568:A0 0.000195146
46 *188:48 *338:41 0
47 *188:52 *3730:A 0.000428217
48 *188:52 *297:6 0.000221628
49 *188:52 *297:25 8.33813e-05
50 *188:52 *338:49 9.69399e-05
51 *188:77 *3730:A 2.07462e-05
52 *188:77 *3760:B2 0.000170733
53 *188:77 *338:20 1.24368e-05
54 *3573:S *188:29 0.000185124
55 *3623:A2 *3623:A3 5.60962e-05
56 *3762:A1 *3760:A2 1.58163e-05
57 *3762:A1 *3762:A2 5.38444e-06
58 *3762:A1 *188:77 3.42426e-05
59 *3814:D *3760:A2 0.000119738
60 *3837:D *188:12 0.000224492
61 *3886:A *188:48 1.3895e-05
62 *5:47 *188:12 0.000385957
63 *144:8 *188:29 1.91998e-05
*RES
1 *3622:X *188:12 30.0679 
2 *188:12 *3756:C1 10.2464 
3 *188:12 *188:29 15.1964 
4 *188:29 *3757:S 22.3714 
5 *188:29 *188:44 5.07143 
6 *188:44 *188:48 7.66071 
7 *188:48 *188:52 10.7857 
8 *188:52 *3759:B_N 9.3 
9 *188:52 *3730:C_N 9.83571 
10 *188:48 *3623:A3 17.1036 
11 *188:44 *188:77 1.76786 
12 *188:77 *3762:A2 9.72857 
13 *188:77 *3760:A2 22.1571 
*END

*D_NET *189 0.00101525
*CONN
*I *3624:B I *D sky130_fd_sc_hd__nand2_2
*I *3623:X O *D sky130_fd_sc_hd__a31o_2
*CAP
1 *3624:B 0.000172571
2 *3623:X 0.000172571
3 *3624:B *3568:A0 0.000123295
4 *3624:B *3604:A 2.53134e-05
5 *3624:B *3731:A2 0.000312767
6 *3624:B *270:12 0.000169582
7 *3624:B *337:80 3.57366e-05
8 *3624:A *3624:B 3.41517e-06
*RES
1 *3623:X *3624:B 32.975 
*END

*D_NET *190 0.0166994
*CONN
*I *3648:S I *D sky130_fd_sc_hd__mux2_2
*I *3653:S I *D sky130_fd_sc_hd__mux2_2
*I *3657:A2 I *D sky130_fd_sc_hd__o211a_2
*I *3630:A I *D sky130_fd_sc_hd__inv_2
*I *3636:A I *D sky130_fd_sc_hd__nor2_2
*I *3640:B2 I *D sky130_fd_sc_hd__o22a_2
*I *3632:A2 I *D sky130_fd_sc_hd__a21o_2
*I *3655:B1 I *D sky130_fd_sc_hd__a21oi_2
*I *3660:S I *D sky130_fd_sc_hd__mux2_2
*I *3624:Y O *D sky130_fd_sc_hd__nand2_2
*CAP
1 *3648:S 0.000418676
2 *3653:S 0
3 *3657:A2 3.03949e-05
4 *3630:A 2.62895e-05
5 *3636:A 0.00102852
6 *3640:B2 7.673e-05
7 *3632:A2 0
8 *3655:B1 0
9 *3660:S 0.000177933
10 *3624:Y 0.000270549
11 *190:123 0.000814686
12 *190:78 0.00119674
13 *190:59 0.00103192
14 *190:44 0.00119006
15 *190:35 0.00079933
16 *190:29 0.000759935
17 *190:25 0.00100217
18 *190:14 0.000747635
19 *3630:A *3631:C1 3.50166e-05
20 *3630:A *3643:B2 5.49489e-05
21 *3636:A *3636:B 1.08359e-05
22 *3636:A *3640:B1 8.76474e-05
23 *3636:A *3643:A1 4.82865e-05
24 *3636:A *3643:A2 1.02936e-05
25 *3636:A *3643:B1 0.000212215
26 *3636:A *194:10 1.21309e-05
27 *3636:A *201:16 2.94709e-06
28 *3640:B2 *3629:S 0.000142152
29 *3640:B2 *3640:B1 5.58875e-06
30 *3640:B2 *3797:A 0.000103907
31 *3648:S *3644:A 5.33005e-05
32 *3648:S *3647:A1 9.41642e-05
33 *3648:S *3647:B1 1.0033e-05
34 *3648:S *3647:B2 1.92905e-05
35 *3648:S *192:10 6.14594e-05
36 *3648:S *310:56 0.000323888
37 *3648:S *310:71 0.000142739
38 *3648:S *311:16 2.78576e-05
39 *3657:A2 *3657:B1 3.50166e-05
40 *3660:S *3731:A1 0.000135647
41 *3660:S *3731:B1 5.49544e-05
42 *3660:S *3792:A 0.000139208
43 *190:14 *3731:B1 0.000213033
44 *190:14 *308:8 9.90431e-05
45 *190:14 *337:80 9.10928e-05
46 *190:25 *3731:B1 0.000124083
47 *190:25 *288:66 4.63699e-05
48 *190:25 *308:51 0
49 *190:25 *310:25 0.000612546
50 *190:29 *3654:A 6.05161e-06
51 *190:29 *3656:A 1.59373e-05
52 *190:29 *3657:A1 1.96571e-05
53 *190:29 *216:6 9.56233e-05
54 *190:29 *288:66 6.37797e-06
55 *190:35 *3657:B1 0.000438987
56 *190:44 *314:27 3.25078e-05
57 *190:44 *315:14 2.74784e-05
58 *190:59 *315:14 6.27272e-06
59 *190:78 *3631:B1 0
60 *190:78 *3640:B1 0.000133301
61 *190:123 *3652:B1 9.90431e-05
62 *190:123 *3653:A0 5.49544e-05
63 *190:123 *309:75 0.000269428
64 *190:123 *310:21 8.4719e-05
65 *190:123 *310:25 0.000125736
66 *190:123 *310:56 2.36643e-05
67 pll_bypass *3636:A 7.6644e-05
68 *3565:A_N *190:44 0.000327387
69 *3610:A1 *190:35 0.000320031
70 *3610:A1 *190:44 0.000441363
71 *3631:B2 *3630:A 4.5001e-05
72 *3631:B2 *3636:A 0.000102199
73 *3642:A2 *3636:A 5.19422e-05
74 *3839:RESET_B *190:25 4.82237e-05
75 *3843:D *3636:A 0.000151989
76 *5:51 *190:44 0
77 *144:34 *190:14 0.000106552
78 *144:34 *190:123 1.23511e-05
79 *147:14 *190:35 0.000321745
80 *147:14 *190:44 0.000521686
81 *174:26 *190:14 0.000151268
82 *183:52 *3648:S 0
83 *183:63 *3648:S 0
84 *183:107 *190:14 0
*RES
1 *3624:Y *190:14 25.6214 
2 *190:14 *3660:S 13.1214 
3 *190:14 *190:25 12.5179 
4 *190:25 *190:29 8.32143 
5 *190:29 *190:35 13.2143 
6 *190:35 *3655:B1 13.8 
7 *190:35 *190:44 11.9643 
8 *190:44 *3632:A2 13.8 
9 *190:44 *190:59 8.51305 
10 *190:59 *3640:B2 16.2911 
11 *190:59 *190:78 2.33036 
12 *190:78 *3636:A 36.5143 
13 *190:78 *3630:A 14.7643 
14 *190:29 *3657:A2 10.0321 
15 *190:25 *190:123 12.2321 
16 *190:123 *3653:S 9.3 
17 *190:123 *3648:S 27.175 
*END

*D_NET *191 0.000997374
*CONN
*I *3629:A0 I *D sky130_fd_sc_hd__mux2_2
*I *3625:Y O *D sky130_fd_sc_hd__nand2_2
*CAP
1 *3629:A0 0.000130079
2 *3625:Y 0.000130079
3 *3629:A0 *3625:A 0.000224308
4 *3629:A0 *3625:B 0.000183445
5 *3629:A0 *3631:A1 0.000125547
6 *3629:A0 *3632:B1 7.80851e-06
7 *3629:A0 *3797:A 0.000100831
8 *3629:A0 *288:8 7.48301e-06
9 *3629:A0 *315:14 5.88923e-05
10 *3631:A2 *3629:A0 2.89016e-05
*RES
1 *3625:Y *3629:A0 32.2429 
*END

*D_NET *192 0.0028496
*CONN
*I *3642:B1 I *D sky130_fd_sc_hd__a22o_2
*I *3627:B I *D sky130_fd_sc_hd__and2_2
*I *3646:B I *D sky130_fd_sc_hd__nor2_2
*I *3626:X O *D sky130_fd_sc_hd__and4_2
*CAP
1 *3642:B1 0.000175688
2 *3627:B 5.1139e-05
3 *3646:B 0
4 *3626:X 8.69915e-05
5 *192:25 0.00049938
6 *192:10 0.000359545
7 *3627:B *3566:C1 1.3701e-05
8 *3627:B *3635:B 9.83442e-05
9 *3627:B *312:25 7.57394e-05
10 *3642:B1 *3639:A1 1.31516e-05
11 *3642:B1 *3642:A1 5.71472e-05
12 *3642:B1 *3643:B1 3.01062e-05
13 *3642:B1 *3643:B2 0.000315993
14 *192:25 *3628:B 0.000147131
15 *192:25 *3644:A 4.48647e-05
16 *3635:A *3627:B 1.98839e-05
17 *3642:A2 *3642:B1 0.000203989
18 *3646:A *192:25 5.65955e-05
19 *3648:S *192:10 6.14594e-05
20 *183:63 *192:10 0
21 *183:63 *192:25 0.000202835
22 *183:80 *3642:B1 0.000185297
23 *183:80 *192:25 0.000150618
*RES
1 *3626:X *192:10 19.9429 
2 *192:10 *3646:B 9.3 
3 *192:10 *192:25 11.3929 
4 *192:25 *3627:B 15.5857 
5 *192:25 *3642:B1 19.6571 
*END

*D_NET *193 0.00108302
*CONN
*I *3635:B I *D sky130_fd_sc_hd__nor2_2
*I *3628:B I *D sky130_fd_sc_hd__nand2_2
*I *3627:X O *D sky130_fd_sc_hd__and2_2
*CAP
1 *3635:B 0.000159325
2 *3628:B 8.72985e-05
3 *3627:X 0
4 *193:4 0.000246624
5 *3635:B *312:16 4.3825e-05
6 *3635:B *312:25 9.76435e-06
7 *3627:B *3635:B 9.83442e-05
8 *3635:A *3628:B 8.18233e-06
9 *3635:A *3635:B 0.000282521
10 *192:25 *3628:B 0.000147131
*RES
1 *3627:X *193:4 9.3 
2 *193:4 *3628:B 20.2464 
3 *193:4 *3635:B 13.1393 
*END

*D_NET *194 0.00376918
*CONN
*I *3629:S I *D sky130_fd_sc_hd__mux2_2
*I *3639:A0 I *D sky130_fd_sc_hd__mux2_2
*I *3628:Y O *D sky130_fd_sc_hd__nand2_2
*CAP
1 *3629:S 0.000733607
2 *3639:A0 2.65875e-05
3 *3628:Y 0.000393713
4 *194:10 0.00115391
5 *3629:S *3631:B1 0.000140088
6 *3629:S *3632:A1 5.39166e-06
7 *3629:S *3640:B1 0.00013966
8 *3629:S *3797:A 0.000133269
9 *3629:S *313:12 0
10 *3629:S *313:18 4.94455e-05
11 *3629:S *315:32 1.04232e-05
12 *3639:A0 *3643:B2 0.000140933
13 *194:10 *3628:A 8.71141e-05
14 *194:10 *3638:B 3.98559e-05
15 *194:10 *3640:B1 5.59013e-05
16 *194:10 *313:18 6.22052e-05
17 *3631:B2 *3639:A0 0.000140933
18 *3636:A *194:10 1.21309e-05
19 *3640:B2 *3629:S 0.000142152
20 *3844:D *3629:S 0.000143375
21 *144:62 *194:10 5.52238e-05
22 *144:103 *194:10 0.000103267
*RES
1 *3628:Y *194:10 20.55 
2 *194:10 *3639:A0 15.1571 
3 *194:10 *3629:S 25.9786 
*END

*D_NET *195 0.000916563
*CONN
*I *3631:B1 I *D sky130_fd_sc_hd__o221a_2
*I *3629:X O *D sky130_fd_sc_hd__mux2_2
*CAP
1 *3631:B1 0.000249874
2 *3629:X 0.000249874
3 *3631:B1 *3631:A1 5.982e-05
4 *3631:B1 *3632:B1 5.49826e-05
5 *3631:B1 *3797:A 4.77058e-05
6 *3629:S *3631:B1 0.000140088
7 *3631:A2 *3631:B1 5.65955e-05
8 *3631:B2 *3631:B1 5.76234e-05
9 *190:78 *3631:B1 0
*RES
1 *3629:X *3631:B1 33.3009 
*END

*D_NET *196 0.00238203
*CONN
*I *3643:B2 I *D sky130_fd_sc_hd__a22o_2
*I *3631:C1 I *D sky130_fd_sc_hd__o221a_2
*I *3630:Y O *D sky130_fd_sc_hd__inv_2
*CAP
1 *3643:B2 0.000692386
2 *3631:C1 6.39277e-05
3 *3630:Y 0
4 *196:4 0.000756314
5 *3643:B2 *3642:A1 2.78509e-05
6 *3643:B2 *3643:B1 7.03341e-05
7 *3630:A *3631:C1 3.50166e-05
8 *3630:A *3643:B2 5.49489e-05
9 *3631:B2 *3631:C1 9.99853e-05
10 *3631:B2 *3643:B2 0.000104455
11 *3639:A0 *3643:B2 0.000140933
12 *3642:A2 *3643:B2 1.98839e-05
13 *3642:B1 *3643:B2 0.000315993
*RES
1 *3630:Y *196:4 9.3 
2 *196:4 *3631:C1 10.9786 
3 *196:4 *3643:B2 19.4161 
*END

*D_NET *197 0.00159302
*CONN
*I *3632:B1 I *D sky130_fd_sc_hd__a21o_2
*I *3631:X O *D sky130_fd_sc_hd__o221a_2
*CAP
1 *3632:B1 0.000670164
2 *3631:X 0.000670164
3 *3632:B1 *3797:A 5.24274e-05
4 *3632:B1 *315:10 9.90431e-05
5 *3632:B1 *315:14 0
6 *3629:A0 *3632:B1 7.80851e-06
7 *3631:B1 *3632:B1 5.49826e-05
8 *3844:D *3632:B1 0
9 *3846:D *3632:B1 3.84349e-05
*RES
1 *3631:X *3632:B1 47.8143 
*END

*D_NET *198 0.00325463
*CONN
*I *3657:B1 I *D sky130_fd_sc_hd__o211a_2
*I *3634:B I *D sky130_fd_sc_hd__nand2_2
*I *3655:A2 I *D sky130_fd_sc_hd__a21oi_2
*I *3633:Y O *D sky130_fd_sc_hd__nand2_2
*CAP
1 *3657:B1 0.000161771
2 *3634:B 0.00019551
3 *3655:A2 0.000263617
4 *3633:Y 0
5 *198:10 0.000688964
6 *198:4 0.000391608
7 *3655:A2 *3655:A1 9.81603e-05
8 *3657:B1 *3657:C1 9.90431e-05
9 *3657:A2 *3657:B1 3.50166e-05
10 *147:14 *3634:B 0.000386633
11 *147:14 *198:10 0.000360613
12 *174:26 *3657:B1 4.665e-05
13 *174:44 *3657:B1 5.96516e-05
14 *174:44 *198:10 2.84026e-05
15 *190:35 *3657:B1 0.000438987
*RES
1 *3633:Y *198:4 9.3 
2 *198:4 *198:10 9.71429 
3 *198:10 *3655:A2 17.7643 
4 *198:10 *3634:B 18.7821 
5 *198:4 *3657:B1 14.3714 
*END

*D_NET *199 0.000193487
*CONN
*I *3638:A I *D sky130_fd_sc_hd__xor2_2
*I *3634:Y O *D sky130_fd_sc_hd__nand2_2
*CAP
1 *3638:A 4.88342e-05
2 *3634:Y 4.88342e-05
3 *3638:A *3638:B 9.58181e-05
*RES
1 *3634:Y *3638:A 19.5464 
*END

*D_NET *200 0.00156194
*CONN
*I *3636:B I *D sky130_fd_sc_hd__nor2_2
*I *3642:B2 I *D sky130_fd_sc_hd__a22o_2
*I *3635:Y O *D sky130_fd_sc_hd__nor2_2
*CAP
1 *3636:B 0.000379298
2 *3642:B2 0.000133382
3 *3635:Y 0
4 *200:4 0.000512679
5 *3636:B *3796:A 0
6 *3636:B *312:16 0.000212777
7 *3642:B2 *3642:A1 0.000167603
8 *3642:B2 *311:70 1.00332e-05
9 *3642:B2 *312:16 5.65955e-05
10 pll_bypass *3636:B 2.28335e-05
11 *3636:A *3636:B 1.08359e-05
12 *3843:D *3636:B 5.59013e-05
*RES
1 *3635:Y *200:4 9.3 
2 *200:4 *3642:B2 21.0857 
3 *200:4 *3636:B 24.9071 
*END

*D_NET *201 0.00258893
*CONN
*I *3641:A I *D sky130_fd_sc_hd__inv_2
*I *3637:B I *D sky130_fd_sc_hd__nand2_2
*I *3640:A2 I *D sky130_fd_sc_hd__o22a_2
*I *3636:Y O *D sky130_fd_sc_hd__nor2_2
*CAP
1 *3641:A 7.15375e-05
2 *3637:B 1.11423e-05
3 *3640:A2 0.00018626
4 *3636:Y 0
5 *201:16 0.000977242
6 *201:4 0.000851377
7 *3640:A2 *3797:A 0.000110532
8 *3640:A2 *313:14 6.1079e-05
9 *3641:A *3643:A2 0.000100261
10 *201:16 *3643:A1 2.14686e-05
11 *201:16 *3643:A2 0.000105693
12 *201:16 *3643:B1 2.07878e-05
13 *201:16 *3797:A 6.85998e-05
14 *3636:A *201:16 2.94709e-06
*RES
1 *3636:Y *201:4 9.3 
2 *201:4 *201:16 19.3393 
3 *201:16 *3640:A2 13.3179 
4 *201:16 *3637:B 9.72857 
5 *201:4 *3641:A 10.9786 
*END

*D_NET *202 0.00403941
*CONN
*I *3638:B I *D sky130_fd_sc_hd__xor2_2
*I *3637:Y O *D sky130_fd_sc_hd__nand2_2
*CAP
1 *3638:B 0.000934762
2 *3637:Y 0.000934762
3 *3638:B *3628:A 0.00027325
4 *3638:B *3634:A 5.86153e-05
5 *3638:B *3639:A1 0.000195555
6 *3638:B *313:18 0.000307871
7 *3616:A *3638:B 9.41642e-05
8 *3638:A *3638:B 9.58181e-05
9 *144:58 *3638:B 6.8646e-06
10 *144:62 *3638:B 0.000953769
11 *183:12 *3638:B 2.59355e-05
12 *183:63 *3638:B 3.92854e-05
13 *183:80 *3638:B 7.89037e-05
14 *194:10 *3638:B 3.98559e-05
*RES
1 *3637:Y *3638:B 40.2732 
*END

*D_NET *203 0.000703493
*CONN
*I *3640:B1 I *D sky130_fd_sc_hd__o22a_2
*I *3639:X O *D sky130_fd_sc_hd__mux2_2
*CAP
1 *3640:B1 0.000111355
2 *3639:X 0.000111355
3 *3629:S *3640:B1 0.00013966
4 *3631:B2 *3640:B1 5.86849e-05
5 *3636:A *3640:B1 8.76474e-05
6 *3640:B2 *3640:B1 5.58875e-06
7 *190:78 *3640:B1 0.000133301
8 *194:10 *3640:B1 5.59013e-05
*RES
1 *3639:X *3640:B1 31.1179 
*END

*D_NET *204 0.000774038
*CONN
*I *3643:A2 I *D sky130_fd_sc_hd__a22o_2
*I *3641:Y O *D sky130_fd_sc_hd__inv_2
*CAP
1 *3643:A2 0.000202403
2 *3641:Y 0.000202403
3 *3643:A2 *3643:A1 3.59697e-05
4 *3636:A *3643:A2 1.02936e-05
5 *3641:A *3643:A2 0.000100261
6 *3843:D *3643:A2 0.000117014
7 *201:16 *3643:A2 0.000105693
*RES
1 *3641:Y *3643:A2 23.1536 
*END

*D_NET *205 0.000796034
*CONN
*I *3643:B1 I *D sky130_fd_sc_hd__a22o_2
*I *3642:X O *D sky130_fd_sc_hd__a22o_2
*CAP
1 *3643:B1 0.000126538
2 *3642:X 0.000126538
3 *3643:B1 *3642:A1 9.90367e-05
4 *3643:B1 *3643:A1 3.50166e-05
5 *3636:A *3643:B1 0.000212215
6 *3642:A2 *3643:B1 7.54606e-05
7 *3642:B1 *3643:B1 3.01062e-05
8 *3643:B2 *3643:B1 7.03341e-05
9 *201:16 *3643:B1 2.07878e-05
*RES
1 *3642:X *3643:B1 23.2786 
*END

*D_NET *206 0.0016545
*CONN
*I *3645:B I *D sky130_fd_sc_hd__or2_2
*I *3651:B I *D sky130_fd_sc_hd__nor2_2
*I *3644:X O *D sky130_fd_sc_hd__and3_2
*CAP
1 *3645:B 0.000322755
2 *3651:B 8.68762e-05
3 *3644:X 3.82669e-05
4 *206:10 0.000447898
5 *3645:B *3568:A0 1.34631e-05
6 *3645:B *3626:C 1.34548e-05
7 *3645:B *3626:D 0.0002088
8 *3645:B *3647:B1 0.000141734
9 *3645:B *311:35 5.65955e-05
10 *3651:B *3626:D 8.23082e-05
11 *3651:B *3652:B2 5.52238e-05
12 *206:10 *3644:B 5.33978e-05
13 *3652:A2 *3645:B 3.046e-05
14 *144:47 *206:10 0.000103267
*RES
1 *3644:X *206:10 19.6393 
2 *206:10 *3651:B 11.0857 
3 *206:10 *3645:B 15.5857 
*END

*D_NET *207 0.0015073
*CONN
*I *3647:B1 I *D sky130_fd_sc_hd__a22o_2
*I *3645:X O *D sky130_fd_sc_hd__or2_2
*CAP
1 *3647:B1 0.000369102
2 *3645:X 0.000369102
3 *3647:B1 *3647:A1 0.000250201
4 *3647:B1 *3647:B2 0.000151333
5 *3647:B1 *297:66 0
6 *3647:B1 *310:71 0.00010326
7 *3647:B1 *311:16 1.3142e-05
8 *3647:B1 *311:31 5.20669e-05
9 *3647:B1 *311:35 4.73286e-05
10 *3645:B *3647:B1 0.000141734
11 *3648:S *3647:B1 1.0033e-05
12 *183:63 *3647:B1 0
*RES
1 *3645:X *3647:B1 35.4036 
*END

*D_NET *208 0.00062051
*CONN
*I *3647:B2 I *D sky130_fd_sc_hd__a22o_2
*I *3646:Y O *D sky130_fd_sc_hd__nor2_2
*CAP
1 *3647:B2 0.00020559
2 *3646:Y 0.00020559
3 *3647:B2 *3644:A 1.03037e-05
4 *3647:B2 *3648:A0 0
5 *3647:A2 *3647:B2 2.84026e-05
6 *3647:B1 *3647:B2 0.000151333
7 *3648:S *3647:B2 1.92905e-05
*RES
1 *3646:Y *3647:B2 31.4571 
*END

*D_NET *209 0.000234583
*CONN
*I *3648:A0 I *D sky130_fd_sc_hd__mux2_2
*I *3647:X O *D sky130_fd_sc_hd__a22o_2
*CAP
1 *3648:A0 8.36371e-05
2 *3647:X 8.36371e-05
3 *3648:A0 *297:66 2.34969e-05
4 *3648:A0 *311:16 3.84349e-05
5 *3648:A0 *311:70 5.37741e-06
6 *3647:B2 *3648:A0 0
*RES
1 *3647:X *3648:A0 29.3679 
*END

*D_NET *210 0.000943877
*CONN
*I *3649:A I *D sky130_fd_sc_hd__buf_1
*I *3648:X O *D sky130_fd_sc_hd__mux2_2
*CAP
1 *3649:A 0.000208298
2 *3648:X 0.000208298
3 *3649:A *297:66 0.000199706
4 *3649:A *297:83 8.00806e-05
5 *3649:A *311:31 9.33978e-07
6 *3649:A *312:16 5.49544e-05
7 pll_bypass *3649:A 8.66324e-05
8 *3842:D *3649:A 0.000104974
*RES
1 *3648:X *3649:A 32.8679 
*END

*D_NET *211 0.000589464
*CONN
*I *3652:B1 I *D sky130_fd_sc_hd__a22o_2
*I *3650:X O *D sky130_fd_sc_hd__a21o_2
*CAP
1 *3652:B1 0.00013129
2 *3650:X 0.00013129
3 *3652:B1 *309:75 0.00010326
4 *3652:B1 *309:88 4.73656e-05
5 *144:34 *3652:B1 5.10822e-05
6 *144:47 *3652:B1 2.61337e-05
7 *190:123 *3652:B1 9.90431e-05
*RES
1 *3650:X *3652:B1 30.4929 
*END

*D_NET *212 0.000133696
*CONN
*I *3652:B2 I *D sky130_fd_sc_hd__a22o_2
*I *3651:Y O *D sky130_fd_sc_hd__nor2_2
*CAP
1 *3652:B2 1.1624e-05
2 *3651:Y 1.1624e-05
3 *3652:B2 *3626:D 5.52238e-05
4 *3651:B *3652:B2 5.52238e-05
*RES
1 *3651:Y *3652:B2 19.1357 
*END

*D_NET *213 0.000403238
*CONN
*I *3653:A0 I *D sky130_fd_sc_hd__mux2_2
*I *3652:X O *D sky130_fd_sc_hd__a22o_2
*CAP
1 *3653:A0 8.2121e-05
2 *3652:X 8.2121e-05
3 *3653:A0 *310:21 5.65955e-05
4 *183:52 *3653:A0 0.000127446
5 *190:123 *3653:A0 5.49544e-05
*RES
1 *3652:X *3653:A0 29.7786 
*END

*D_NET *214 0.000834239
*CONN
*I *3654:A I *D sky130_fd_sc_hd__buf_1
*I *3653:X O *D sky130_fd_sc_hd__mux2_2
*CAP
1 *3654:A 0.000238187
2 *3653:X 0.000238187
3 *3654:A *3841:CLK 6.10501e-05
4 *3654:A *288:66 2.61099e-05
5 *3654:A *310:21 9.28788e-05
6 *3654:A *310:25 8.00806e-05
7 *3841:D *3654:A 1.33343e-05
8 *144:34 *3654:A 7.83587e-05
9 *190:29 *3654:A 6.05161e-06
*RES
1 *3653:X *3654:A 32.0018 
*END

*D_NET *215 0.000398923
*CONN
*I *3658:A2 I *D sky130_fd_sc_hd__a21o_2
*I *3655:Y O *D sky130_fd_sc_hd__a21oi_2
*CAP
1 *3658:A2 0.000173669
2 *3655:Y 0.000173669
3 *3658:A2 *3655:A1 5.15855e-05
*RES
1 *3655:Y *3658:A2 20.7964 
*END

*D_NET *216 0.000996963
*CONN
*I *3659:A0 I *D sky130_fd_sc_hd__mux2_2
*I *3657:A1 I *D sky130_fd_sc_hd__o211a_2
*I *3656:Y O *D sky130_fd_sc_hd__inv_2
*CAP
1 *3659:A0 0.000144367
2 *3657:A1 2.09158e-05
3 *3656:Y 5.74453e-05
4 *216:6 0.000222728
5 *3659:A0 *3792:A 5.25337e-05
6 *3659:A0 *308:47 7.63045e-05
7 *3659:A0 *308:51 4.58764e-05
8 *3659:A0 *309:10 0
9 *3659:A0 *309:18 0
10 *216:6 *3656:A 9.83442e-05
11 *3659:S *3659:A0 5.52302e-05
12 *3738:A *3659:A0 1.21258e-05
13 *183:33 *3659:A0 9.58126e-05
14 *190:29 *3657:A1 1.96571e-05
15 *190:29 *216:6 9.56233e-05
*RES
1 *3656:Y *216:6 11.0679 
2 *216:6 *3657:A1 9.68393 
3 *216:6 *3659:A0 21.8 
*END

*D_NET *217 0.00110957
*CONN
*I *3658:B1 I *D sky130_fd_sc_hd__a21o_2
*I *3657:X O *D sky130_fd_sc_hd__o211a_2
*CAP
1 *3658:B1 0.000276174
2 *3657:X 0.000276174
3 *3658:B1 *3626:D 4.08637e-05
4 *3658:B1 *3658:A1 0.000142152
5 *3658:B1 *308:51 0.000123288
6 *3658:B1 *308:62 0.000250915
*RES
1 *3657:X *3658:B1 34.0464 
*END

*D_NET *218 0.000975157
*CONN
*I *3660:A0 I *D sky130_fd_sc_hd__mux2_2
*I *3659:X O *D sky130_fd_sc_hd__mux2_2
*CAP
1 *3660:A0 0.000310136
2 *3659:X 0.000310136
3 *3660:A0 *3731:A1 5.68713e-05
4 *3660:A0 *3792:A 0
5 *3660:A0 *309:18 4.40898e-05
6 *4:169 *3660:A0 0.00014802
7 *174:26 *3660:A0 7.6644e-05
8 *183:33 *3660:A0 2.92601e-05
*RES
1 *3659:X *3660:A0 33.3232 
*END

*D_NET *219 0.000518563
*CONN
*I *3661:A I *D sky130_fd_sc_hd__buf_1
*I *3660:X O *D sky130_fd_sc_hd__mux2_2
*CAP
1 *3661:A 8.56606e-05
2 *3660:X 8.56606e-05
3 *3661:A *3839:CLK 5.33005e-05
4 *3661:A *309:18 0.000148189
5 *3661:A *337:43 0.000145753
*RES
1 *3660:X *3661:A 30.0821 
*END

*D_NET *220 0.00123263
*CONN
*I *3664:B I *D sky130_fd_sc_hd__and3_2
*I *3718:A2 I *D sky130_fd_sc_hd__a311oi_2
*I *3662:X O *D sky130_fd_sc_hd__and2_2
*CAP
1 *3664:B 7.20562e-05
2 *3718:A2 0.000129677
3 *3662:X 0.000183303
4 *220:6 0.000385036
5 *3718:A2 *267:30 8.54896e-05
6 *3718:A2 *341:39 0
7 *3580:B *3664:B 8.43535e-06
8 *3580:B *220:6 6.63048e-05
9 *3662:A *3718:A2 5.83233e-05
10 *3721:A1 *3664:B 5.49544e-05
11 *3721:A1 *3718:A2 0.000189047
*RES
1 *3662:X *220:6 11.4786 
2 *220:6 *3718:A2 21.4607 
3 *220:6 *3664:B 10.2464 
*END

*D_NET *221 0.00139064
*CONN
*I *3664:C I *D sky130_fd_sc_hd__and3_2
*I *3718:A3 I *D sky130_fd_sc_hd__a311oi_2
*I *3663:Y O *D sky130_fd_sc_hd__nor2_2
*CAP
1 *3664:C 0
2 *3718:A3 0.000100446
3 *3663:Y 0.00031596
4 *221:6 0.000416406
5 *3718:A3 *3718:A1 3.08382e-06
6 *3718:A3 *341:45 2.63442e-05
7 *3718:A3 *342:6 1.93007e-05
8 *221:6 *3664:A 9.41642e-05
9 *3580:B *221:6 0.000265806
10 *3663:B *221:6 2.14757e-05
11 *3721:A1 *3718:A3 9.6788e-05
12 *49:32 *3718:A3 3.08664e-05
*RES
1 *3663:Y *221:6 13.5321 
2 *221:6 *3718:A3 20.6036 
3 *221:6 *3664:C 9.3 
*END

*D_NET *222 0.00158661
*CONN
*I *3665:S I *D sky130_fd_sc_hd__mux2_2
*I *3664:X O *D sky130_fd_sc_hd__and3_2
*CAP
1 *3665:S 0.000449995
2 *3664:X 0.000449995
3 *3665:S *3580:A 0.000126139
4 *3665:S *3664:A 5.52238e-05
5 *3665:S *3665:A0 5.33433e-05
6 *3665:S *290:8 0.000309281
7 *3721:A1 *3665:S 3.78126e-05
8 *4:67 *3665:S 0.000104816
*RES
1 *3664:X *3665:S 36.0286 
*END

*D_NET *223 0.000247289
*CONN
*I *3666:A I *D sky130_fd_sc_hd__buf_1
*I *3665:X O *D sky130_fd_sc_hd__mux2_2
*CAP
1 *3666:A 6.98697e-05
2 *3665:X 6.98697e-05
3 *3666:A *3665:A0 0
4 *3838:RESET_B *3666:A 0.000107549
*RES
1 *3665:X *3666:A 20.2786 
*END

*D_NET *224 0.00470326
*CONN
*I *3668:B I *D sky130_fd_sc_hd__nand2_2
*I *3731:B1 I *D sky130_fd_sc_hd__a21o_2
*I *3667:Y O *D sky130_fd_sc_hd__nor3_2
*CAP
1 *3668:B 2.23039e-05
2 *3731:B1 0.00108287
3 *3667:Y 0.000176787
4 *224:8 0.00128197
5 *3668:B *3605:B 5.56861e-05
6 *3668:B *3668:A 9.86826e-06
7 *3668:B *3839:CLK 1.30765e-05
8 *3731:B1 *3668:A 1.69175e-05
9 *3731:B1 *3669:S 5.47176e-05
10 *3731:B1 *3731:A1 0.000207154
11 *3731:B1 *3731:A2 0.000139208
12 *3731:B1 *3839:CLK 0.000581413
13 *3731:B1 *308:8 9.31595e-05
14 *3731:B1 *310:25 1.0033e-05
15 *224:8 *3605:A 7.61932e-05
16 *224:8 *3605:B 9.59253e-05
17 *224:8 *3667:B 3.99614e-06
18 *224:8 *3669:S 2.2816e-05
19 *224:8 *3839:CLK 2.95641e-05
20 *3660:S *3731:B1 5.49544e-05
21 *3837:RESET_B *3731:B1 5.33005e-05
22 *3839:RESET_B *3731:B1 7.6997e-05
23 *4:169 *3731:B1 0.0001412
24 *174:26 *3731:B1 1.42752e-05
25 *175:16 *224:8 5.17614e-05
26 *190:14 *3731:B1 0.000213033
27 *190:25 *3731:B1 0.000124083
*RES
1 *3667:Y *224:8 13.9607 
2 *224:8 *3731:B1 38.3179 
3 *224:8 *3668:B 10.3893 
*END

*D_NET *225 0.000830681
*CONN
*I *3669:S I *D sky130_fd_sc_hd__mux2_2
*I *3668:Y O *D sky130_fd_sc_hd__nand2_2
*CAP
1 *3669:S 0.000249481
2 *3668:Y 0.000249481
3 *3669:S *296:25 0
4 *3669:S *296:36 0
5 *3731:B1 *3669:S 5.47176e-05
6 *3837:D *3669:S 3.25078e-05
7 *188:12 *3669:S 0.000221678
8 *224:8 *3669:S 2.2816e-05
*RES
1 *3668:Y *3669:S 32.3143 
*END

*D_NET *226 0.0013145
*CONN
*I *3670:A I *D sky130_fd_sc_hd__buf_1
*I *3669:X O *D sky130_fd_sc_hd__mux2_2
*CAP
1 *3670:A 0.000321718
2 *3669:X 0.000321718
3 *3670:A *3674:A 1.8461e-05
4 *3670:A *3839:CLK 0.000141729
5 *3669:A0 *3670:A 5.49489e-05
6 *3837:RESET_B *3670:A 0.000150096
7 *5:47 *3670:A 0
8 *147:14 *3670:A 0.000305827
*RES
1 *3669:X *3670:A 35.2071 
*END

*D_NET *227 0.0159582
*CONN
*I *3799:A I *D sky130_fd_sc_hd__inv_2
*I *3777:A I *D sky130_fd_sc_hd__buf_1
*I *3798:A I *D sky130_fd_sc_hd__inv_2
*I *3800:A I *D sky130_fd_sc_hd__inv_2
*I *3801:A I *D sky130_fd_sc_hd__inv_2
*I *3802:A I *D sky130_fd_sc_hd__inv_2
*I *3763:A I *D sky130_fd_sc_hd__buf_1
*I *3803:A I *D sky130_fd_sc_hd__inv_2
*I *3672:A I *D sky130_fd_sc_hd__buf_1
*I *3671:X O *D sky130_fd_sc_hd__buf_1
*CAP
1 *3799:A 0.000366506
2 *3777:A 0
3 *3798:A 9.71884e-05
4 *3800:A 0.000156967
5 *3801:A 5.35406e-05
6 *3802:A 2.36895e-05
7 *3763:A 0.000531246
8 *3803:A 0
9 *3672:A 2.41864e-05
10 *3671:X 0.00154393
11 *227:110 0.000135042
12 *227:108 0.000779685
13 *227:91 0.00126544
14 *227:78 0.000786684
15 *227:43 0.00105891
16 *227:24 0.000879697
17 *227:20 0.000939871
18 *227:10 0.00213227
19 *3672:A *228:16 6.10501e-05
20 *3763:A *3675:A 4.39965e-05
21 *3763:A *3756:A1 1.86536e-05
22 *3763:A *3756:A2 9.11365e-06
23 *3763:A *3756:B1 0
24 *3800:A *3840:CLK 0.000139202
25 *3800:A *296:101 0
26 *3802:A *3612:A 5.52238e-05
27 *227:20 *3621:A 0
28 *227:20 *3847:CLK 0
29 *227:20 *317:20 0
30 *227:20 *318:12 0
31 *227:24 *3606:A 0
32 *227:24 *3850:CLK 0.000337637
33 *227:24 *234:12 0.000101076
34 *227:24 *318:29 0
35 *227:43 *3675:A 0.000309171
36 *227:43 *3756:B1 0
37 *227:43 *3850:CLK 0
38 *227:108 *3625:B 0
39 *227:108 *296:101 0
40 *3608:A1 *3763:A 0.000401232
41 *3608:S *3763:A 0.000131944
42 *3609:A *3763:A 0.000137094
43 *3609:A *227:43 0.000134513
44 *3612:B *227:20 0.000379465
45 *3612:B *227:24 4.1331e-06
46 *3613:B *227:20 0.000220242
47 *3614:B *227:20 0
48 *3618:B *3800:A 5.41794e-05
49 *3817:D *3763:A 0.000100831
50 *3845:RESET_B *3798:A 4.72114e-05
51 *3845:RESET_B *227:108 0.000177934
52 *3846:D *3799:A 6.2379e-05
53 *3848:D *227:20 0
54 *3848:RESET_B *3801:A 1.21258e-05
55 *3848:RESET_B *227:20 0.000175512
56 *3848:RESET_B *227:91 6.05161e-06
57 *3849:RESET_B *227:20 0.000179656
58 *3850:D *227:43 0.000220379
59 *5:47 *3799:A 2.90427e-05
60 *5:47 *3800:A 0.000198698
61 *5:47 *227:108 0.000731101
62 *5:51 *3799:A 7.57155e-05
63 *5:53 *3799:A 0.000444018
64 *176:83 *227:43 0.000184745
*RES
1 *3671:X *227:10 37.425 
2 *227:10 *227:20 14 
3 *227:20 *227:24 11 
4 *227:24 *3672:A 10.0321 
5 *227:24 *227:43 19.8393 
6 *227:43 *3803:A 9.3 
7 *227:43 *3763:A 27.6214 
8 *227:20 *3802:A 14.3357 
9 *227:10 *227:78 4.5 
10 *227:78 *3801:A 10.2643 
11 *227:78 *227:91 16.5357 
12 *227:91 *3800:A 17.7107 
13 *227:91 *227:108 14.7679 
14 *227:108 *227:110 0.535714 
15 *227:110 *3798:A 11.0679 
16 *227:110 *3777:A 9.3 
17 *227:108 *3799:A 27.425 
*END

*D_NET *228 0.0178693
*CONN
*I *3755:A I *D sky130_fd_sc_hd__inv_2
*I *3715:A I *D sky130_fd_sc_hd__inv_2
*I *3673:A I *D sky130_fd_sc_hd__inv_2
*I *3683:A I *D sky130_fd_sc_hd__inv_2
*I *3690:A I *D sky130_fd_sc_hd__inv_2
*I *3695:A I *D sky130_fd_sc_hd__inv_2
*I *3754:A I *D sky130_fd_sc_hd__inv_2
*I *3705:A I *D sky130_fd_sc_hd__inv_2
*I *3710:A I *D sky130_fd_sc_hd__inv_2
*I *3701:A I *D sky130_fd_sc_hd__inv_2
*I *3672:X O *D sky130_fd_sc_hd__buf_1
*CAP
1 *3755:A 0.000366611
2 *3715:A 0.000696645
3 *3673:A 3.80696e-05
4 *3683:A 0
5 *3690:A 0
6 *3695:A 5.84541e-05
7 *3754:A 0.000124984
8 *3705:A 8.34015e-05
9 *3710:A 0.000946874
10 *3701:A 5.85959e-05
11 *3672:X 0
12 *228:142 0.0012253
13 *228:131 0.000593024
14 *228:114 0.000716232
15 *228:45 0.00158298
16 *228:26 0.000856251
17 *228:22 0.000810408
18 *228:18 0.000887844
19 *228:16 0.00164491
20 *228:4 0.00157932
21 *3695:A *3785:A 0
22 *3701:A *3784:A 0
23 *3710:A *3709:A 0.000105163
24 *3710:A *3714:A 5.59637e-05
25 *3710:A *3888:A 0.000162851
26 *3715:A *3724:A1 0
27 *3715:A *237:16 8.56716e-05
28 *3754:A *3894:I1 9.69399e-05
29 *228:16 *3694:A 0.00027068
30 *228:16 *3786:A 0.000117621
31 *228:18 *3693:A0 0
32 *228:18 *3694:A 0
33 *228:18 *3786:A 0
34 *228:22 *3785:A 0
35 *228:22 *3894:I1 0
36 *228:22 *292:76 0
37 *228:26 *3696:A 0
38 *228:26 *3894:I1 0
39 *228:26 *292:76 0
40 *228:45 *3704:A1 0
41 *228:45 *3704:A2 0
42 *228:45 *3704:B1 0.000258178
43 *228:45 *3709:A 0
44 *228:45 *3888:A 0.000104988
45 *228:45 *325:14 7.6644e-05
46 *228:114 *3682:B2 0.000310307
47 *228:114 *3688:A1 0
48 *228:114 *3688:A3 1.21258e-05
49 *228:114 *232:16 4.87854e-05
50 *228:114 *234:24 0
51 *228:114 *234:45 4.46186e-06
52 *228:131 *3682:B1 0.000304396
53 *228:131 *3688:A2 8.68665e-05
54 *228:131 *3688:A3 1.92905e-05
55 *228:131 *232:16 4.43256e-05
56 *228:142 *237:16 9.71197e-05
57 *3586:B *3715:A 0
58 *3672:A *228:16 6.10501e-05
59 *3687:A *3695:A 2.59355e-05
60 *3688:B1 *228:131 5.00645e-05
61 *3697:A1 *3710:A 6.68892e-05
62 *3702:A *3715:A 0.000308985
63 *3717:A *3755:A 0.000271345
64 *3818:D *228:26 0
65 *3830:D *3710:A 1.40415e-05
66 *3831:RESET_B *3710:A 1.02504e-05
67 *3831:RESET_B *228:45 9.4724e-05
68 *3832:D *3701:A 1.83136e-05
69 *3832:D *228:45 1.69175e-05
70 *3832:RESET_B *3701:A 1.83136e-05
71 *3833:RESET_B *228:22 0.000100639
72 *3834:RESET_B *228:18 9.80029e-05
73 *3835:RESET_B *228:16 0.000230353
74 *3835:RESET_B *228:114 0.000526949
75 *2:33 *3705:A 5.20669e-05
76 *5:10 *3755:A 5.10822e-05
77 *5:12 *228:131 4.64978e-05
78 *5:12 *228:142 0.000128258
79 *5:16 *228:131 1.59373e-05
80 *5:47 *3755:A 0
81 *14:25 *3701:A 0.000141729
82 *14:25 *228:45 0.000107233
83 *16:28 *3715:A 0.000709089
84 *49:32 *3715:A 0
85 *53:12 *228:45 9.25014e-06
86 *163:10 *3715:A 0
87 *163:10 *3755:A 0
88 *163:12 *3715:A 0
89 *163:14 *3715:A 0
90 *165:16 *3715:A 0
91 *176:83 *3715:A 7.79781e-06
92 *176:83 *3755:A 0.000155329
*RES
1 *3672:X *228:4 9.3 
2 *228:4 *228:16 21.3214 
3 *228:16 *228:18 7.41071 
4 *228:18 *228:22 7.33929 
5 *228:22 *228:26 7.66071 
6 *228:26 *3701:A 11.0857 
7 *228:26 *228:45 14.9643 
8 *228:45 *3710:A 27.6036 
9 *228:45 *3705:A 15.4786 
10 *228:22 *3754:A 16.3 
11 *228:18 *3695:A 14.7643 
12 *228:16 *3690:A 13.8 
13 *228:4 *228:114 17.7143 
14 *228:114 *3683:A 9.3 
15 *228:114 *228:131 17.1607 
16 *228:131 *3673:A 10.0321 
17 *228:131 *228:142 7.91071 
18 *228:142 *3715:A 28.8893 
19 *228:142 *3755:A 21.9786 
*END

*D_NET *229 0.00349942
*CONN
*I *3675:A I *D sky130_fd_sc_hd__buf_1
*I *3674:X O *D sky130_fd_sc_hd__and2_2
*CAP
1 *3675:A 0.00118554
2 *3674:X 0.00118554
3 *3675:A *3674:A 9.25014e-06
4 *3675:A *3756:A1 2.10192e-05
5 *3675:A *3756:B1 0.000603716
6 *3675:A *309:18 3.99614e-06
7 *3609:A *3675:A 8.25843e-06
8 *3763:A *3675:A 4.39965e-05
9 *4:130 *3675:A 8.00806e-05
10 *188:29 *3675:A 4.88637e-05
11 *227:43 *3675:A 0.000309171
*RES
1 *3674:X *3675:A 47.7429 
*END

*D_NET *230 0.00871298
*CONN
*I *3681:B1 I *D sky130_fd_sc_hd__o21a_2
*I *3689:A2 I *D sky130_fd_sc_hd__o22a_2
*I *3693:S I *D sky130_fd_sc_hd__mux2_2
*I *3700:A2 I *D sky130_fd_sc_hd__o22a_2
*I *3713:S I *D sky130_fd_sc_hd__mux2_2
*I *3708:S I *D sky130_fd_sc_hd__mux2_2
*I *3704:A2 I *D sky130_fd_sc_hd__o21a_2
*I *3676:A I *D sky130_fd_sc_hd__inv_2
*I *3675:X O *D sky130_fd_sc_hd__buf_1
*CAP
1 *3681:B1 0
2 *3689:A2 3.20232e-05
3 *3693:S 4.80085e-05
4 *3700:A2 0
5 *3713:S 0.000800853
6 *3708:S 0
7 *3704:A2 6.25615e-05
8 *3676:A 0
9 *3675:X 0.00033344
10 *230:58 0.000905577
11 *230:42 0.000105623
12 *230:38 0.000370017
13 *230:32 0.000620237
14 *230:24 0.000765813
15 *230:18 0.000436527
16 *230:12 0.000418144
17 *3689:A2 *3681:A1 0
18 *3689:A2 *3689:B2 1.8461e-05
19 *3693:S *3692:A1 7.32756e-05
20 *3693:S *3693:A1 1.46148e-05
21 *3704:A2 *3704:A1 1.19227e-05
22 *3704:A2 *3704:B1 4.40153e-05
23 *3713:S *3703:C1 3.90488e-05
24 *3713:S *3707:A0 4.64895e-05
25 *3713:S *3707:S 0.000307968
26 *3713:S *3708:A0 0
27 *3713:S *3708:A1 0.000255673
28 *3713:S *324:10 0
29 *230:12 *234:12 9.74492e-05
30 *230:12 *234:24 2.84494e-05
31 *230:12 *328:14 0.000102545
32 *230:18 *3681:A1 1.02132e-05
33 *230:18 *3689:A1 7.8195e-05
34 *230:18 *3689:B2 0.000227472
35 *230:18 *3768:A 5.52302e-05
36 *230:18 *328:14 0.000112269
37 *230:24 *3689:B2 5.51251e-05
38 *230:24 *3889:A 0
39 *230:24 *234:24 0
40 *230:32 *3691:B1 9.99853e-05
41 *230:32 *3692:A1 2.55698e-05
42 *230:32 *3692:B1 0.000317609
43 *230:32 *3700:B2 0.000476222
44 *230:32 *3769:A 9.60939e-05
45 *230:32 *3818:CLK 3.14193e-05
46 *230:32 *3889:A 0
47 *230:32 *232:35 6.8646e-06
48 *230:32 *234:45 0
49 *230:38 *3700:A1 3.34295e-05
50 *230:38 *3700:B1 1.59782e-05
51 *230:38 *3709:A 3.34366e-05
52 *230:42 *3704:B1 0.000141555
53 *230:58 *3704:B1 4.13496e-05
54 *3687:A *3693:S 9.93955e-05
55 *3691:B2 *230:32 1.85462e-05
56 *3691:C1 *230:32 2.84109e-05
57 *3703:A2 *3713:S 0
58 *3703:A2 *230:38 4.51169e-05
59 *3703:B1 *3713:S 2.34204e-05
60 *3818:D *230:38 0.000132632
61 *3835:RESET_B *230:12 1.46717e-05
62 *13:42 *3713:S 6.8445e-06
63 *14:25 *3704:A2 0.000140856
64 *14:25 *230:42 4.11837e-05
65 *14:25 *230:58 0.000141484
66 *14:56 *3713:S 2.87025e-05
67 *14:58 *3713:S 4.2313e-06
68 *53:12 *230:38 1.99099e-05
69 *53:12 *230:58 3.2687e-05
70 *53:35 *3713:S 2.12005e-05
71 *53:35 *230:58 5.50313e-05
72 *176:10 *230:24 0
73 *176:12 *230:32 0
74 *176:16 *230:38 6.19064e-05
75 *228:45 *3704:A2 0
*RES
1 *3675:X *230:12 24.0321 
2 *230:12 *230:18 3.55357 
3 *230:18 *230:24 9.41071 
4 *230:24 *230:32 14.3571 
5 *230:32 *230:38 14.2857 
6 *230:38 *230:42 1.78571 
7 *230:42 *3676:A 9.3 
8 *230:42 *3704:A2 11.3893 
9 *230:38 *230:58 3 
10 *230:58 *3708:S 9.3 
11 *230:58 *3713:S 31.05 
12 *230:32 *3700:A2 9.3 
13 *230:24 *3693:S 15.5679 
14 *230:18 *3689:A2 10.0321 
15 *230:12 *3681:B1 9.3 
*END

*D_NET *231 0.0013005
*CONN
*I *3678:D I *D sky130_fd_sc_hd__and4_2
*I *3685:C I *D sky130_fd_sc_hd__and3_2
*I *3677:Y O *D sky130_fd_sc_hd__nor2_2
*CAP
1 *3678:D 0
2 *3685:C 0.000171254
3 *3677:Y 0.000176567
4 *231:8 0.000347821
5 *231:8 *267:30 0
6 *3584:C *231:8 1.00375e-05
7 *3663:B *3685:C 9.25014e-06
8 *3685:A *3685:C 0.000116187
9 *3685:B *3685:C 1.03405e-06
10 *147:14 *231:8 0.00010326
11 *147:18 *3685:C 5.80706e-06
12 *147:18 *231:8 0.000124417
13 *151:25 *231:8 5.98714e-05
14 *157:18 *231:8 4.45694e-05
15 *157:20 *3685:C 0.000116481
16 *157:20 *231:8 1.02504e-05
17 *158:10 *3685:C 3.69047e-06
*RES
1 *3677:Y *231:8 18.4786 
2 *231:8 *3685:C 16.8 
3 *231:8 *3678:D 13.8 
*END

*D_NET *232 0.0084472
*CONN
*I *3706:C1 I *D sky130_fd_sc_hd__a221o_2
*I *3679:B1 I *D sky130_fd_sc_hd__a221o_2
*I *3697:C1 I *D sky130_fd_sc_hd__a221o_2
*I *3698:B_N I *D sky130_fd_sc_hd__or2b_2
*I *3691:B1 I *D sky130_fd_sc_hd__a221o_2
*I *3686:C1 I *D sky130_fd_sc_hd__a221o_2
*I *3687:B_N I *D sky130_fd_sc_hd__or2b_2
*I *3678:X O *D sky130_fd_sc_hd__and4_2
*CAP
1 *3706:C1 0.000380731
2 *3679:B1 0
3 *3697:C1 0
4 *3698:B_N 0.000142372
5 *3691:B1 5.76873e-05
6 *3686:C1 0
7 *3687:B_N 7.71836e-05
8 *3678:X 0.000737157
9 *232:85 0.000680305
10 *232:65 0.000325725
11 *232:44 0.000274827
12 *232:35 0.000403363
13 *232:16 0.00124889
14 *232:14 0.00183886
15 *3687:B_N *3692:A1 3.50166e-05
16 *3687:B_N *3692:A2 1.75642e-05
17 *3691:B1 *3700:B2 7.19546e-05
18 *3691:B1 *3769:A 0
19 *3698:B_N *3894:I1 0.000160383
20 *3706:C1 *3894:I1 0.000271026
21 *3706:C1 *237:29 0.000335616
22 *232:16 *3688:A3 2.88018e-06
23 *232:16 *3692:A2 3.69047e-06
24 *232:16 *3836:CLK 6.09916e-05
25 *232:16 *234:45 6.4443e-05
26 *232:35 *3692:B1 5.80706e-06
27 *232:35 *3700:B2 0
28 *232:35 *234:45 0
29 *232:44 *3700:B2 9.66977e-05
30 *232:65 *3697:B1 1.85443e-05
31 *232:65 *3894:I1 1.56e-05
32 *3583:B *232:14 0.000140714
33 *3585:A *232:14 5.21387e-05
34 *3686:A1 *232:65 0
35 *3686:B2 *232:44 2.21339e-05
36 *3691:A1 *3691:B1 2.3906e-05
37 *3691:A1 *232:35 8.22337e-06
38 *3691:A1 *232:44 1.47972e-05
39 *3691:A1 *232:65 0
40 *3691:A2 *3691:B1 7.70668e-05
41 *3691:A2 *232:44 5.0937e-05
42 *3691:A2 *232:65 2.21972e-05
43 *3691:B2 *3691:B1 5.38444e-06
44 *3691:B2 *232:65 0
45 *3691:C1 *232:35 0
46 *3691:C1 *232:65 0
47 *3697:B2 *3706:C1 3.42313e-05
48 *3697:B2 *232:65 5.41298e-06
49 *3711:B1 *3706:C1 0
50 *3711:B1 *232:85 0
51 *3835:RESET_B *232:16 1.32552e-05
52 *3836:RESET_B *232:85 7.6644e-05
53 *53:66 *3706:C1 5.25862e-06
54 *53:66 *232:85 0
55 *147:35 *232:14 1.24368e-05
56 *163:48 *3706:C1 1.19191e-05
57 *163:56 *3706:C1 0.000107884
58 *176:16 *232:65 0
59 *176:83 *232:85 0.000109664
60 *176:87 *3706:C1 0.000125724
61 *228:114 *232:16 4.87854e-05
62 *228:131 *232:16 4.43256e-05
63 *230:32 *3691:B1 9.99853e-05
64 *230:32 *232:35 6.8646e-06
*RES
1 *3678:X *232:14 19.1571 
2 *232:14 *232:16 9.57143 
3 *232:16 *3687:B_N 10.5679 
4 *232:16 *232:35 14.8571 
5 *232:35 *3686:C1 9.3 
6 *232:35 *232:44 1.375 
7 *232:44 *3691:B1 11.4964 
8 *232:44 *232:65 12.3393 
9 *232:65 *3698:B_N 12.3 
10 *232:65 *3697:C1 9.3 
11 *232:14 *232:85 9.94643 
12 *232:85 *3679:B1 13.8 
13 *232:85 *3706:C1 31.2107 
*END

*D_NET *233 0.000832729
*CONN
*I *3682:B1 I *D sky130_fd_sc_hd__a22o_2
*I *3679:X O *D sky130_fd_sc_hd__a221o_2
*CAP
1 *3682:B1 0.000169589
2 *3679:X 0.000169589
3 *3682:A2 *3682:B1 3.04242e-05
4 *5:12 *3682:B1 9.70616e-05
5 *5:16 *3682:B1 3.08664e-05
6 *53:66 *3682:B1 3.08032e-05
7 *228:131 *3682:B1 0.000304396
*RES
1 *3679:X *3682:B1 32.2607 
*END

*D_NET *234 0.00872238
*CONN
*I *3688:A1 I *D sky130_fd_sc_hd__a31o_2
*I *3681:A2 I *D sky130_fd_sc_hd__o21a_2
*I *3699:A1 I *D sky130_fd_sc_hd__a31o_2
*I *3707:S I *D sky130_fd_sc_hd__mux2_2
*I *3712:A2 I *D sky130_fd_sc_hd__o21a_2
*I *3702:C I *D sky130_fd_sc_hd__and3_2
*I *3692:A2 I *D sky130_fd_sc_hd__o21a_2
*I *3680:Y O *D sky130_fd_sc_hd__nor2_2
*CAP
1 *3688:A1 0.000328535
2 *3681:A2 0
3 *3699:A1 1.28073e-05
4 *3707:S 0.000184988
5 *3712:A2 0.000192698
6 *3702:C 0.000238751
7 *3692:A2 4.73824e-05
8 *3680:Y 0.000311429
9 *234:55 0.000602091
10 *234:51 0.000445012
11 *234:45 0.000746859
12 *234:24 0.00102585
13 *234:18 0.000503307
14 *234:12 0.000809475
15 *3688:A1 *3688:A2 2.8266e-06
16 *3688:A1 *3768:A 0.000111788
17 *3692:A2 *3692:A1 3.08664e-05
18 *3699:A1 *3781:A 2.04318e-05
19 *3707:S *3707:A0 0.00026353
20 *3712:A2 *3712:B1 3.08664e-05
21 *234:12 *3680:A 1.15172e-05
22 *234:12 *328:14 0.000102545
23 *234:18 *3768:A 9.22103e-06
24 *234:18 *328:14 8.76563e-05
25 *234:24 *3768:A 9.91086e-05
26 *234:45 *3682:B2 6.25608e-05
27 *234:45 *3688:A3 6.05161e-06
28 *234:45 *3692:B1 0
29 *234:45 *3700:B2 7.55747e-05
30 *234:45 *3887:A 0.000478151
31 *234:51 *3712:B1 0
32 *234:51 *3829:CLK 1.85361e-05
33 *234:51 *3887:A 0.000105446
34 *234:55 *3712:B1 0
35 *234:55 *3713:A1 0.000173097
36 *234:55 *3829:CLK 2.10446e-05
37 *234:55 *3887:A 5.31541e-05
38 *3680:B *234:12 5.33005e-05
39 *3686:A2 *234:45 5.33005e-05
40 *3687:A *3692:A2 7.57312e-05
41 *3687:A *234:45 6.05161e-06
42 *3687:B_N *3692:A2 1.75642e-05
43 *3702:A *3702:C 4.30382e-05
44 *3702:A *3712:A2 0.000110585
45 *3702:B *3702:C 5.39629e-06
46 *3713:S *3707:S 0.000307968
47 *3829:D *3707:S 0
48 *3835:RESET_B *234:12 0.000198691
49 *3835:RESET_B *234:24 0
50 *53:66 *234:45 0
51 *152:45 *234:45 4.49406e-05
52 *163:58 *234:45 8.17274e-05
53 *163:71 *234:45 2.95642e-05
54 *176:10 *234:12 0.000181796
55 *227:24 *234:12 0.000101076
56 *228:114 *3688:A1 0
57 *228:114 *234:24 0
58 *228:114 *234:45 4.46186e-06
59 *230:12 *234:12 9.74492e-05
60 *230:12 *234:24 2.84494e-05
61 *230:24 *234:24 0
62 *230:32 *234:45 0
63 *232:16 *3692:A2 3.69047e-06
64 *232:16 *234:45 6.4443e-05
65 *232:35 *234:45 0
*RES
1 *3680:Y *234:12 26.5679 
2 *234:12 *234:18 2.625 
3 *234:18 *234:24 14.2857 
4 *234:24 *3692:A2 10.6571 
5 *234:24 *234:45 27.1964 
6 *234:45 *234:51 2.30357 
7 *234:51 *234:55 7.96429 
8 *234:55 *3702:C 12.3179 
9 *234:55 *3712:A2 13.1393 
10 *234:51 *3707:S 18.6036 
11 *234:45 *3699:A1 14.0054 
12 *234:18 *3681:A2 9.3 
13 *234:12 *3688:A1 23.55 
*END

*D_NET *235 0.00176085
*CONN
*I *3682:B2 I *D sky130_fd_sc_hd__a22o_2
*I *3681:X O *D sky130_fd_sc_hd__o21a_2
*CAP
1 *3682:B2 0.000358233
2 *3681:X 0.000358233
3 *3682:B2 *3688:A2 0.000428224
4 *3682:B2 *3768:A 0.000136951
5 *3682:B2 *3887:A 1.02504e-05
6 *5:16 *3682:B2 9.60939e-05
7 *228:114 *3682:B2 0.000310307
8 *234:45 *3682:B2 6.25608e-05
*RES
1 *3681:X *3682:B2 36.4036 
*END

*D_NET *236 0.00125151
*CONN
*I *3689:B1 I *D sky130_fd_sc_hd__o22a_2
*I *3684:X O *D sky130_fd_sc_hd__and2_2
*CAP
1 *3689:B1 0.000463295
2 *3684:X 0.000463295
3 *3689:B1 *3694:A 4.57445e-05
4 *3689:B1 *293:21 2.58997e-05
5 *3689:B1 *327:8 7.83659e-05
6 *3684:B *3689:B1 0.00010096
7 *3835:D *3689:B1 5.36394e-05
8 *48:13 *3689:B1 2.0311e-05
*RES
1 *3684:X *3689:B1 35.6536 
*END

*D_NET *237 0.00508817
*CONN
*I *3706:B1 I *D sky130_fd_sc_hd__a221o_2
*I *3686:B1 I *D sky130_fd_sc_hd__a221o_2
*I *3697:B1 I *D sky130_fd_sc_hd__a221o_2
*I *3711:C1 I *D sky130_fd_sc_hd__a211o_2
*I *3685:X O *D sky130_fd_sc_hd__and3_2
*CAP
1 *3706:B1 2.01218e-05
2 *3686:B1 0.000176273
3 *3697:B1 0.000188672
4 *3711:C1 0
5 *3685:X 0.000715255
6 *237:31 0.000573913
7 *237:29 0.00056239
8 *237:16 0.00104856
9 *3686:B1 *3700:B2 7.6644e-05
10 *237:16 *3894:I1 4.27437e-05
11 *237:29 *3894:I1 2.79156e-05
12 *3686:A1 *3686:B1 7.6644e-05
13 *3686:B2 *3686:B1 4.5701e-05
14 *3691:A2 *3686:B1 4.96042e-06
15 *3697:A2 *3697:B1 6.08961e-05
16 *3697:B2 *3697:B1 3.98433e-05
17 *3697:B2 *237:29 2.88698e-05
18 *3697:B2 *237:31 1.56e-05
19 *3706:A1 *237:31 0.000135028
20 *3706:C1 *237:29 0.000335616
21 *3715:A *237:16 8.56716e-05
22 *5:12 *237:16 2.47833e-05
23 *5:47 *237:16 8.80919e-05
24 *16:28 *237:16 0.000100823
25 *34:30 *237:16 5.33005e-05
26 *34:30 *237:29 7.33985e-05
27 *152:45 *237:29 6.26774e-06
28 *163:56 *237:29 0.000137561
29 *163:73 *3697:B1 6.05161e-06
30 *163:73 *237:31 3.37161e-05
31 *176:83 *237:16 0.000150632
32 *176:87 *237:16 3.65627e-05
33 *228:142 *237:16 9.71197e-05
34 *232:65 *3697:B1 1.85443e-05
*RES
1 *3685:X *237:16 30.1393 
2 *237:16 *3711:C1 9.3 
3 *237:16 *237:29 7.26786 
4 *237:29 *237:31 2.58929 
5 *237:31 *3697:B1 11.9071 
6 *237:31 *3686:B1 21.2196 
7 *237:29 *3706:B1 9.72857 
*END

*D_NET *238 0.00187414
*CONN
*I *3688:A2 I *D sky130_fd_sc_hd__a31o_2
*I *3686:X O *D sky130_fd_sc_hd__a221o_2
*CAP
1 *3688:A2 0.000487636
2 *3686:X 0.000487636
3 *3688:A2 *3688:A3 0.000150625
4 *3688:A2 *3788:A 5.68713e-05
5 *3688:A2 *3887:A 7.57869e-05
6 *3682:B2 *3688:A2 0.000428224
7 *3686:B2 *3688:A2 9.76689e-05
8 *3688:A1 *3688:A2 2.8266e-06
9 *3688:B1 *3688:A2 0
10 *53:66 *3688:A2 0
11 *228:131 *3688:A2 8.68665e-05
*RES
1 *3686:X *3688:A2 37.85 
*END

*D_NET *239 0.000824711
*CONN
*I *3688:A3 I *D sky130_fd_sc_hd__a31o_2
*I *3687:X O *D sky130_fd_sc_hd__or2b_2
*CAP
1 *3688:A3 0.000269787
2 *3687:X 0.000269787
3 *3688:A2 *3688:A3 0.000150625
4 *3688:B1 *3688:A3 0
5 *3835:RESET_B *3688:A3 9.41642e-05
6 *228:114 *3688:A3 1.21258e-05
7 *228:131 *3688:A3 1.92905e-05
8 *232:16 *3688:A3 2.88018e-06
9 *234:45 *3688:A3 6.05161e-06
*RES
1 *3687:X *3688:A3 31.725 
*END

*D_NET *240 0.00183675
*CONN
*I *3689:B2 I *D sky130_fd_sc_hd__o22a_2
*I *3688:X O *D sky130_fd_sc_hd__a31o_2
*CAP
1 *3689:B2 0.000558445
2 *3688:X 0.000558445
3 *3689:B2 *3768:A 0.000129944
4 *3689:B2 *3788:A 0.000265441
5 *3689:A2 *3689:B2 1.8461e-05
6 *3835:RESET_B *3689:B2 2.34204e-05
7 *230:18 *3689:B2 0.000227472
8 *230:24 *3689:B2 5.51251e-05
*RES
1 *3688:X *3689:B2 35.7786 
*END

*D_NET *241 0.000647055
*CONN
*I *3692:B1 I *D sky130_fd_sc_hd__o21a_2
*I *3691:X O *D sky130_fd_sc_hd__a221o_2
*CAP
1 *3692:B1 0.00016182
2 *3691:X 0.00016182
3 *230:32 *3692:B1 0.000317609
4 *232:35 *3692:B1 5.80706e-06
5 *234:45 *3692:B1 0
*RES
1 *3691:X *3692:B1 31.6714 
*END

*D_NET *242 0.000391933
*CONN
*I *3693:A1 I *D sky130_fd_sc_hd__mux2_2
*I *3692:X O *D sky130_fd_sc_hd__o21a_2
*CAP
1 *3693:A1 0.000137747
2 *3692:X 0.000137747
3 *3693:A1 *3692:A1 9.83442e-05
4 *3687:A *3693:A1 3.47956e-06
5 *3693:S *3693:A1 1.46148e-05
*RES
1 *3692:X *3693:A1 20.3679 
*END

*D_NET *243 0.00231549
*CONN
*I *3694:A I *D sky130_fd_sc_hd__buf_1
*I *3693:X O *D sky130_fd_sc_hd__mux2_2
*CAP
1 *3694:A 0.000642534
2 *3693:X 0.000642534
3 *3694:A *3693:A0 9.90431e-05
4 *3694:A *3786:A 0.000343604
5 *3694:A *293:21 0
6 *3694:A *327:8 0
7 *3687:A *3694:A 0.000271352
8 *3689:B1 *3694:A 4.57445e-05
9 *228:16 *3694:A 0.00027068
10 *228:18 *3694:A 0
*RES
1 *3693:X *3694:A 42.2607 
*END

*D_NET *244 0.000371823
*CONN
*I *3700:B1 I *D sky130_fd_sc_hd__o22a_2
*I *3696:X O *D sky130_fd_sc_hd__and2_2
*CAP
1 *3700:B1 0.000125399
2 *3696:X 0.000125399
3 *3696:B *3700:B1 2.84026e-05
4 *3818:D *3700:B1 7.6644e-05
5 *230:38 *3700:B1 1.59782e-05
*RES
1 *3696:X *3700:B1 29.7786 
*END

*D_NET *245 0.00105445
*CONN
*I *3699:A2 I *D sky130_fd_sc_hd__a31o_2
*I *3697:X O *D sky130_fd_sc_hd__a221o_2
*CAP
1 *3699:A2 0.000229013
2 *3697:X 0.000229013
3 *3699:A2 *3699:A3 0.000178847
4 *3699:A2 *3781:A 1.98839e-05
5 *3691:A1 *3699:A2 0.000199706
6 *3702:B *3699:A2 0.000197991
*RES
1 *3697:X *3699:A2 32.3321 
*END

*D_NET *246 0.00168005
*CONN
*I *3699:A3 I *D sky130_fd_sc_hd__a31o_2
*I *3698:X O *D sky130_fd_sc_hd__or2b_2
*CAP
1 *3699:A3 0.000424134
2 *3698:X 0.000424134
3 *3699:A3 *3781:A 5.33005e-05
4 *3699:A3 *3894:I1 0.000310451
5 *3691:A1 *3699:A3 0.000147718
6 *3697:A1 *3699:A3 0
7 *3699:A2 *3699:A3 0.000178847
8 *53:35 *3699:A3 0.000141461
*RES
1 *3698:X *3699:A3 35.5643 
*END

*D_NET *247 0.00318482
*CONN
*I *3700:B2 I *D sky130_fd_sc_hd__o22a_2
*I *3699:X O *D sky130_fd_sc_hd__a31o_2
*CAP
1 *3700:B2 0.000886089
2 *3699:X 0.000886089
3 *3700:B2 *3707:A1 5.56943e-05
4 *3700:B2 *3769:A 0
5 *3700:B2 *3818:CLK 2.47724e-05
6 *3700:B2 *3887:A 6.607e-06
7 *3686:A1 *3700:B2 2.71732e-05
8 *3686:B1 *3700:B2 7.6644e-05
9 *3686:B2 *3700:B2 0.000205938
10 *3691:A1 *3700:B2 1.06972e-05
11 *3691:B1 *3700:B2 7.19546e-05
12 *3702:B *3700:B2 0.000168961
13 *3706:A1 *3700:B2 6.25005e-05
14 *163:71 *3700:B2 5.32039e-05
15 *230:32 *3700:B2 0.000476222
16 *232:35 *3700:B2 0
17 *232:44 *3700:B2 9.66977e-05
18 *234:45 *3700:B2 7.55747e-05
*RES
1 *3699:X *3700:B2 43.7429 
*END

*D_NET *248 0.00115448
*CONN
*I *3703:C1 I *D sky130_fd_sc_hd__a211o_2
*I *3702:X O *D sky130_fd_sc_hd__and3_2
*CAP
1 *3703:C1 0.00035852
2 *3702:X 0.00035852
3 *3703:C1 *3708:A1 5.20669e-05
4 *3703:C1 *3781:A 9.98961e-05
5 *3697:A1 *3703:C1 0.000150618
6 *3713:S *3703:C1 3.90488e-05
7 *13:42 *3703:C1 9.58126e-05
*RES
1 *3702:X *3703:C1 33.9036 
*END

*D_NET *249 0.0012388
*CONN
*I *3704:B1 I *D sky130_fd_sc_hd__o21a_2
*I *3703:X O *D sky130_fd_sc_hd__a211o_2
*CAP
1 *3704:B1 0.000170772
2 *3703:X 0.000170772
3 *3704:B1 *3709:A 0.000100823
4 *3703:A2 *3704:B1 0.000100823
5 *3704:A2 *3704:B1 4.40153e-05
6 *14:25 *3704:B1 2.87101e-05
7 *53:12 *3704:B1 0.000181796
8 *228:45 *3704:B1 0.000258178
9 *230:42 *3704:B1 0.000141555
10 *230:58 *3704:B1 4.13496e-05
*RES
1 *3703:X *3704:B1 33.6 
*END

*D_NET *250 0.00147629
*CONN
*I *3707:A1 I *D sky130_fd_sc_hd__mux2_2
*I *3706:X O *D sky130_fd_sc_hd__a221o_2
*CAP
1 *3707:A1 0.000377471
2 *3706:X 0.000377471
3 *3707:A1 *3707:A0 8.71091e-05
4 *3707:A1 *3781:A 0.000110341
5 *3707:A1 *3887:A 0.000261227
6 *3707:A1 *3894:I1 5.52238e-05
7 *3700:B2 *3707:A1 5.56943e-05
8 *3702:B *3707:A1 1.50795e-05
9 *13:42 *3707:A1 0.000136676
*RES
1 *3706:X *3707:A1 34.6 
*END

*D_NET *251 0.000994692
*CONN
*I *3708:A1 I *D sky130_fd_sc_hd__mux2_2
*I *3707:X O *D sky130_fd_sc_hd__mux2_2
*CAP
1 *3708:A1 0.000200016
2 *3707:X 0.000200016
3 *3703:C1 *3708:A1 5.20669e-05
4 *3713:S *3708:A1 0.000255673
5 *14:56 *3708:A1 0.000147718
6 *53:35 *3708:A1 0.000139202
*RES
1 *3707:X *3708:A1 32.2786 
*END

*D_NET *252 0.00186039
*CONN
*I *3709:A I *D sky130_fd_sc_hd__buf_1
*I *3708:X O *D sky130_fd_sc_hd__mux2_2
*CAP
1 *3709:A 0.000743683
2 *3708:X 0.000743683
3 *3709:A *3830:CLK 0
4 *3709:A *324:10 7.39637e-05
5 *3703:A2 *3709:A 3.81e-05
6 *3704:B1 *3709:A 0.000100823
7 *3710:A *3709:A 0.000105163
8 *14:58 *3709:A 0
9 *53:12 *3709:A 2.15363e-05
10 *228:45 *3709:A 0
11 *230:38 *3709:A 3.34366e-05
*RES
1 *3708:X *3709:A 41.8679 
*END

*D_NET *253 0.00127883
*CONN
*I *3712:B1 I *D sky130_fd_sc_hd__o21a_2
*I *3711:X O *D sky130_fd_sc_hd__a211o_2
*CAP
1 *3712:B1 0.00048672
2 *3711:X 0.00048672
3 *3712:B1 *3894:I1 9.83442e-05
4 *3702:A *3712:B1 5.49489e-05
5 *3712:A2 *3712:B1 3.08664e-05
6 *53:66 *3712:B1 0.00012123
7 *234:51 *3712:B1 0
8 *234:55 *3712:B1 0
*RES
1 *3711:X *3712:B1 35.5821 
*END

*D_NET *254 0.000992009
*CONN
*I *3713:A1 I *D sky130_fd_sc_hd__mux2_2
*I *3712:X O *D sky130_fd_sc_hd__o21a_2
*CAP
1 *3713:A1 0.000209101
2 *3712:X 0.000209101
3 *3713:A1 *3887:A 0.000172375
4 *3702:A *3713:A1 0.000228334
5 *234:55 *3713:A1 0.000173097
*RES
1 *3712:X *3713:A1 32.0286 
*END

*D_NET *255 0.00190227
*CONN
*I *3714:A I *D sky130_fd_sc_hd__buf_1
*I *3713:X O *D sky130_fd_sc_hd__mux2_2
*CAP
1 *3714:A 0.000465785
2 *3713:X 0.000465785
3 *3714:A *323:14 6.98575e-05
4 *3691:A1 *3714:A 2.08215e-05
5 *3697:A1 *3714:A 0.000141503
6 *3702:B *3714:A 7.83659e-05
7 *3710:A *3714:A 5.59637e-05
8 *3830:RESET_B *3714:A 7.6997e-05
9 *2:33 *3714:A 0.000136628
10 *13:46 *3714:A 0.000390561
*RES
1 *3713:X *3714:A 47.0464 
*END

*D_NET *256 0.000584357
*CONN
*I *3717:D I *D sky130_fd_sc_hd__and4_2
*I *3716:X O *D sky130_fd_sc_hd__and2b_2
*CAP
1 *3717:D 0.000169199
2 *3716:X 0.000169199
3 *3584:C *3717:D 4.13037e-05
4 *4:111 *3717:D 0.000107277
5 *151:6 *3717:D 1.90111e-05
6 *153:10 *3717:D 7.83659e-05
*RES
1 *3716:X *3717:D 30.4036 
*END

*D_NET *257 0.00159381
*CONN
*I *3718:B1 I *D sky130_fd_sc_hd__a311oi_2
*I *3717:X O *D sky130_fd_sc_hd__and4_2
*CAP
1 *3718:B1 0.000347997
2 *3717:X 0.000347997
3 *3718:B1 *3718:A1 3.30409e-06
4 *3718:B1 *267:30 0.000412395
5 *3579:C *3718:B1 3.34783e-05
6 *3584:C *3718:B1 0.000187661
7 *3662:B *3718:B1 0.000149911
8 *3663:B *3718:B1 3.87941e-05
9 *3718:C1 *3718:B1 2.65319e-06
10 *3720:B1 *3718:B1 4.42832e-06
11 *152:20 *3718:B1 6.51946e-05
12 *158:10 *3718:B1 0
13 *158:12 *3718:B1 0
*RES
1 *3717:X *3718:B1 36.6714 
*END

*D_NET *258 0.000824674
*CONN
*I *3722:A1 I *D sky130_fd_sc_hd__o21ba_2
*I *3718:Y O *D sky130_fd_sc_hd__a311oi_2
*CAP
1 *3722:A1 0.000213603
2 *3718:Y 0.000213603
3 *3722:A1 *3722:A2 0.00010096
4 *3722:A1 *267:30 7.19616e-05
5 *3722:A1 *342:22 2.06178e-05
6 *3718:C1 *3722:A1 3.48023e-05
7 *3720:B1 *3722:A1 0.000169125
*RES
1 *3718:Y *3722:A1 32.2786 
*END

*D_NET *259 0.00110747
*CONN
*I *3720:A1 I *D sky130_fd_sc_hd__a21o_2
*I *3719:Y O *D sky130_fd_sc_hd__inv_2
*CAP
1 *3720:A1 0.000285286
2 *3719:Y 0.000285286
3 *3720:A1 *3586:A 4.25809e-05
4 *3576:S *3720:A1 0.000267814
5 *3702:A *3720:A1 0.000226507
*RES
1 *3719:Y *3720:A1 33.2429 
*END

*D_NET *260 0.000269501
*CONN
*I *3722:A2 I *D sky130_fd_sc_hd__o21ba_2
*I *3720:X O *D sky130_fd_sc_hd__a21o_2
*CAP
1 *3722:A2 8.42705e-05
2 *3720:X 8.42705e-05
3 *3722:A1 *3722:A2 0.00010096
*RES
1 *3720:X *3722:A2 20.3679 
*END

*D_NET *261 0.000317355
*CONN
*I *3722:B1_N I *D sky130_fd_sc_hd__o21ba_2
*I *3721:X O *D sky130_fd_sc_hd__a21o_2
*CAP
1 *3722:B1_N 0.000131519
2 *3721:X 0.000131519
3 *3722:B1_N *3725:A1_N 5.43173e-05
4 *163:14 *3722:B1_N 0
*RES
1 *3721:X *3722:B1_N 29.9036 
*END

*D_NET *262 0.00188686
*CONN
*I *3725:A1_N I *D sky130_fd_sc_hd__a2bb2o_2
*I *3722:X O *D sky130_fd_sc_hd__o21ba_2
*CAP
1 *3725:A1_N 0.000627807
2 *3722:X 0.000627807
3 *3725:A1_N *3725:A2_N 0.000488473
4 *3722:B1_N *3725:A1_N 5.43173e-05
5 *3724:A2 *3725:A1_N 6.8529e-05
6 *53:46 *3725:A1_N 1.99262e-05
*RES
1 *3722:X *3725:A1_N 29.3321 
*END

*D_NET *263 0.00451029
*CONN
*I *3724:A1 I *D sky130_fd_sc_hd__a211o_2
*I *3723:Y O *D sky130_fd_sc_hd__inv_2
*CAP
1 *3724:A1 0.001932
2 *3723:Y 0.001932
3 *3724:A1 *3725:A2_N 2.44318e-05
4 *3724:A1 *342:22 9.89651e-05
5 *3586:B *3724:A1 7.69776e-06
6 *3602:A0 *3724:A1 2.06112e-05
7 *3715:A *3724:A1 0
8 *3724:A2 *3724:A1 0.000185394
9 *3724:B1 *3724:A1 1.97695e-05
10 *35:25 *3724:A1 0.000289412
*RES
1 *3723:Y *3724:A1 41.0869 
*END

*D_NET *264 0.00107513
*CONN
*I *3725:A2_N I *D sky130_fd_sc_hd__a2bb2o_2
*I *3724:X O *D sky130_fd_sc_hd__a211o_2
*CAP
1 *3725:A2_N 0.000143054
2 *3724:X 0.000143054
3 *3724:A1 *3725:A2_N 2.44318e-05
4 *3724:A2 *3725:A2_N 0.000100261
5 *3724:B1 *3725:A2_N 1.21258e-05
6 *3724:C1 *3725:A2_N 0.000101116
7 *3725:A1_N *3725:A2_N 0.000488473
8 *53:46 *3725:A2_N 6.26177e-05
*RES
1 *3724:X *3725:A2_N 23.6714 
*END

*D_NET *265 0.00437282
*CONN
*I *3731:A1 I *D sky130_fd_sc_hd__a21o_2
*I *3726:X O *D sky130_fd_sc_hd__a21o_2
*CAP
1 *3731:A1 0.00166969
2 *3726:X 0.00166969
3 *3731:A1 *3660:A1 5.45307e-05
4 *3731:A1 *3731:A2 5.33005e-05
5 *3731:A1 *3792:A 7.35235e-05
6 *3731:A1 *3837:CLK 5.52302e-05
7 *3731:A1 *336:10 2.59355e-05
8 *3622:A *3731:A1 5.83641e-05
9 *3660:A0 *3731:A1 5.68713e-05
10 *3660:S *3731:A1 0.000135647
11 *3726:B1 *3731:A1 4.73286e-05
12 *3731:B1 *3731:A1 0.000207154
13 *3837:D *3731:A1 0.000156771
14 *175:16 *3731:A1 3.50166e-05
15 *188:12 *3731:A1 7.37591e-05
*RES
1 *3726:X *3731:A1 44.0107 
*END

*D_NET *266 0.00142108
*CONN
*I *3728:A I *D sky130_fd_sc_hd__buf_1
*I *3727:X O *D sky130_fd_sc_hd__or3b_2
*CAP
1 *3728:A 0.000234567
2 *3727:X 0.000234567
3 *3728:A *3573:A0 4.08637e-05
4 *3728:A *3730:A 1.21258e-05
5 *3728:A *290:34 0
6 *3728:A *308:25 0.000216815
7 *3728:A *309:18 0.000270077
8 *144:21 *3728:A 0
9 *148:12 *3728:A 5.83304e-05
10 *188:29 *3728:A 0.000353734
*RES
1 *3727:X *3728:A 34.6 
*END

*D_NET *267 0.017647
*CONN
*I *3730:A I *D sky130_fd_sc_hd__or3b_2
*I *3744:S I *D sky130_fd_sc_hd__mux2_2
*I *3740:S I *D sky130_fd_sc_hd__mux2_2
*I *3742:S I *D sky130_fd_sc_hd__mux2_2
*I *3746:S I *D sky130_fd_sc_hd__mux2_2
*I *3750:S I *D sky130_fd_sc_hd__mux2_2
*I *3752:S I *D sky130_fd_sc_hd__mux2_2
*I *3748:S I *D sky130_fd_sc_hd__mux2_2
*I *3728:X O *D sky130_fd_sc_hd__buf_1
*CAP
1 *3730:A 0.0015271
2 *3744:S 0
3 *3740:S 0.000279467
4 *3742:S 0
5 *3746:S 0
6 *3750:S 0
7 *3752:S 0.000176557
8 *3748:S 0
9 *3728:X 5.05023e-05
10 *267:82 0.000624115
11 *267:74 0.000387095
12 *267:67 0.000167118
13 *267:47 0.000458528
14 *267:37 0.000425873
15 *267:30 0.00176318
16 *267:6 0.00332155
17 *3730:A *3568:A0 0.000136519
18 *3730:A *3573:A0 2.59355e-05
19 *3730:A *3623:A1 1.00332e-05
20 *3730:A *297:25 9.13888e-05
21 *3730:A *309:18 0.000115811
22 *3730:A *338:41 0.000123359
23 *3740:S *3740:A0 0.000395427
24 *3740:S *3740:A1 0.000101634
25 *3740:S *3742:A1 0.00018372
26 *3740:S *3774:A 2.32517e-05
27 *3740:S *334:14 4.08637e-05
28 *3752:S *3592:A1 0.000207836
29 *3752:S *3750:A0 2.78584e-05
30 *3752:S *3750:A1 9.75422e-05
31 *3752:S *3751:A 0.000217741
32 *267:30 *3594:A1 0.000313467
33 *267:30 *3746:A0 4.18895e-05
34 *267:30 *3747:A 3.69047e-06
35 *267:30 *3749:A 0
36 *267:30 *286:68 0.000179484
37 *267:30 *309:18 3.34295e-05
38 *267:30 *331:12 0
39 *267:30 *341:39 0
40 *267:30 *341:45 0
41 *267:30 *342:22 1.90936e-05
42 *267:37 *3746:A0 5.33005e-05
43 *267:37 *3747:A 1.21258e-05
44 *267:47 *3747:A 7.98318e-05
45 *267:47 *3748:A0 8.9157e-05
46 *267:67 *3746:A0 0.000228791
47 *267:67 *3746:A1 3.18676e-05
48 *267:67 *3747:A 3.05605e-05
49 *267:74 *3746:A1 8.07313e-05
50 *267:82 *3742:A1 5.71472e-05
51 *267:82 *3744:A0 7.95895e-05
52 *267:82 *3745:A 0.000204672
53 *267:82 *3746:A1 1.82549e-05
54 *267:82 *3774:A 2.47833e-05
55 *267:82 *332:14 0.000321683
56 *267:82 *333:16 5.33005e-05
57 *267:82 *333:28 0.000366103
58 irq *267:30 0
59 *3573:S *3730:A 9.76435e-06
60 *3576:S *267:30 0.000357333
61 *3584:C *267:30 3.32354e-05
62 *3662:A *267:30 0.000214338
63 *3662:B *267:30 0.000148189
64 *3718:A2 *267:30 8.54896e-05
65 *3718:B1 *267:30 0.000412395
66 *3720:B1 *267:30 0
67 *3722:A1 *267:30 7.19616e-05
68 *3728:A *3730:A 1.21258e-05
69 *3730:C_N *3730:A 4.33899e-05
70 *3762:A1 *3730:A 0.000201137
71 *3821:RESET_B *267:30 0.000177941
72 *4:35 *3752:S 0.000573555
73 *4:39 *267:30 0
74 *4:58 *267:30 0
75 *4:111 *267:30 0.000409889
76 *4:130 *267:30 0.000218734
77 *8:18 *267:30 0
78 *144:8 *3730:A 0.000481293
79 *147:14 *267:30 0
80 *147:46 *267:30 5.84075e-05
81 *148:12 *3730:A 0.000141734
82 *153:10 *3730:A 5.49544e-05
83 *153:10 *267:30 0.000153437
84 *188:29 *3730:A 1.49769e-05
85 *188:29 *267:6 1.07719e-05
86 *188:44 *3730:A 9.99644e-06
87 *188:52 *3730:A 0.000428217
88 *188:77 *3730:A 2.07462e-05
89 *231:8 *267:30 0
*RES
1 *3728:X *267:6 9.83571 
2 *267:6 *267:30 47.3571 
3 *267:30 *3748:S 9.3 
4 *267:30 *267:37 0.535714 
5 *267:37 *267:47 14.3393 
6 *267:47 *3752:S 16.5679 
7 *267:47 *3750:S 9.3 
8 *267:37 *267:67 3.41071 
9 *267:67 *3746:S 9.3 
10 *267:67 *267:74 1.35714 
11 *267:74 *267:82 9.82143 
12 *267:82 *3742:S 9.3 
13 *267:82 *3740:S 25.9964 
14 *267:74 *3744:S 9.3 
15 *267:6 *3730:A 41.55 
*END

*D_NET *268 0.000621049
*CONN
*I *3730:B I *D sky130_fd_sc_hd__or3b_2
*I *3729:Y O *D sky130_fd_sc_hd__nor2_2
*CAP
1 *3730:B 0.000310524
2 *3729:Y 0.000310524
3 *3730:B *321:16 0
*RES
1 *3729:Y *3730:B 31.5286 
*END

*D_NET *269 0.00297887
*CONN
*I *3731:A2 I *D sky130_fd_sc_hd__a21o_2
*I *3730:X O *D sky130_fd_sc_hd__or3b_2
*CAP
1 *3731:A2 0.000981305
2 *3730:X 0.000981305
3 *3731:A2 *3620:C_N 4.24214e-05
4 *3731:A2 *3735:B1 4.60309e-05
5 *3731:A2 *3735:B2 5.28424e-05
6 *3731:A2 *270:12 8.99537e-05
7 *3731:A2 *270:25 4.58194e-05
8 *3731:A2 *297:25 5.65955e-05
9 *3731:A2 *320:28 1.08528e-05
10 *3731:A2 *320:32 5.72546e-05
11 *3623:B1 *3731:A2 0.000101291
12 *3624:B *3731:A2 0.000312767
13 *3731:A1 *3731:A2 5.33005e-05
14 *3731:B1 *3731:A2 0.000139208
15 *3828:D *3731:A2 7.92229e-06
*RES
1 *3730:X *3731:A2 43.0821 
*END

*D_NET *270 0.00391948
*CONN
*I *3737:A2 I *D sky130_fd_sc_hd__o32a_2
*I *3739:A2 I *D sky130_fd_sc_hd__a22o_2
*I *3732:B1 I *D sky130_fd_sc_hd__a21oi_2
*I *3734:B I *D sky130_fd_sc_hd__nor2_2
*I *3731:X O *D sky130_fd_sc_hd__a21o_2
*CAP
1 *3737:A2 0.000142132
2 *3739:A2 0.000454752
3 *3732:B1 0.000120911
4 *3734:B 0
5 *3731:X 0.000186774
6 *270:42 0.000666029
7 *270:25 0.000306849
8 *270:12 0.000303567
9 *3732:B1 *3732:A1 2.59355e-05
10 *3732:B1 *3736:B 1.33343e-05
11 *3732:B1 *3739:B2 5.89304e-05
12 *3732:B1 *319:28 0.000159281
13 *3737:A2 *3736:B 0.000105249
14 *3737:A2 *3737:A1 0.000112667
15 *3737:A2 *3737:B2 1.17091e-05
16 *3737:A2 *320:22 2.51343e-06
17 *3739:A2 *3733:A 2.48736e-05
18 *3739:A2 *319:16 2.64112e-05
19 *270:25 *3620:C_N 5.37862e-05
20 *270:25 *3735:B1 5.52302e-05
21 *270:42 *3620:C_N 1.02504e-05
22 *270:42 *3736:B 4.53834e-05
23 *270:42 *3737:A1 1.04707e-05
24 *270:42 *319:41 6.94694e-05
25 pll_trim[0] *3739:A2 5.71743e-05
26 pll_trim[0] *270:25 1.94945e-05
27 *3623:A2 *270:12 0.000242474
28 *3623:A2 *270:25 8.43535e-06
29 *3623:A3 *270:12 0.000141734
30 *3623:B1 *270:12 7.64988e-05
31 *3624:B *270:12 0.000169582
32 *3731:A2 *270:12 8.99537e-05
33 *3731:A2 *270:25 4.58194e-05
34 *3826:D *3739:A2 1.90936e-05
35 *3827:D *3737:A2 1.40306e-05
36 *31:48 *270:25 5.36717e-05
37 *31:48 *270:42 1.50087e-05
*RES
1 *3731:X *270:12 16.1571 
2 *270:12 *3734:B 9.3 
3 *270:12 *270:25 7.51786 
4 *270:25 *3732:B1 16.8357 
5 *270:25 *270:42 1.72321 
6 *270:42 *3739:A2 21.8424 
7 *270:42 *3737:A2 17.0946 
*END

*D_NET *271 0.00136556
*CONN
*I *3733:A I *D sky130_fd_sc_hd__inv_2
*I *3739:B1 I *D sky130_fd_sc_hd__a22o_2
*I *3737:B1 I *D sky130_fd_sc_hd__o32a_2
*I *3732:Y O *D sky130_fd_sc_hd__a21oi_2
*CAP
1 *3733:A 0.000169383
2 *3739:B1 0
3 *3737:B1 6.46299e-05
4 *3732:Y 0.000103946
5 *271:23 0.000232182
6 *271:6 0.000231375
7 *3733:A *288:134 3.50166e-05
8 *3733:A *319:16 0.000126276
9 *3733:A *319:28 5.33005e-05
10 *3737:B1 *3737:B2 7.919e-05
11 *3737:B1 *297:34 7.70035e-05
12 *3737:B1 *320:28 6.48204e-05
13 *271:6 *3739:B2 8.09941e-05
14 *271:6 *319:28 7.5938e-06
15 *271:23 *3739:B2 3.08382e-06
16 *271:23 *319:28 1.18904e-05
17 *3739:A2 *3733:A 2.48736e-05
*RES
1 *3732:Y *271:6 10.6571 
2 *271:6 *3737:B1 20.0679 
3 *271:6 *271:23 0.964286 
4 *271:23 *3739:B1 9.3 
5 *271:23 *3733:A 12.7286 
*END

*D_NET *272 0.0010508
*CONN
*I *3735:A2 I *D sky130_fd_sc_hd__o22a_2
*I *3733:Y O *D sky130_fd_sc_hd__inv_2
*CAP
1 *3735:A2 0.000372889
2 *3733:Y 0.000372889
3 *3735:A2 *3735:B2 0.000305025
4 *3735:A2 *3780:A 0
5 *3735:A2 *297:34 0
*RES
1 *3733:Y *3735:A2 32.8679 
*END

*D_NET *273 0.000340431
*CONN
*I *3735:B1 I *D sky130_fd_sc_hd__o22a_2
*I *3734:Y O *D sky130_fd_sc_hd__nor2_2
*CAP
1 *3735:B1 5.77466e-05
2 *3734:Y 5.77466e-05
3 *3623:A2 *3735:B1 2.59355e-05
4 *3731:A2 *3735:B1 4.60309e-05
5 *3828:D *3735:B1 9.77414e-05
6 *270:25 *3735:B1 5.52302e-05
*RES
1 *3734:Y *3735:B1 20.3679 
*END

*D_NET *274 0.000711296
*CONN
*I *3737:A3 I *D sky130_fd_sc_hd__o32a_2
*I *3736:Y O *D sky130_fd_sc_hd__nor2_2
*CAP
1 *3737:A3 0.000226004
2 *3736:Y 0.000226004
3 *3737:A3 *297:34 2.42001e-05
4 *3737:A3 *297:47 0.000158051
5 *3737:A3 *320:22 7.70371e-05
*RES
1 *3736:Y *3737:A3 32.85 
*END

*D_NET *275 0.000668616
*CONN
*I *3739:B2 I *D sky130_fd_sc_hd__a22o_2
*I *3738:X O *D sky130_fd_sc_hd__or2_2
*CAP
1 *3739:B2 0.00018702
2 *3738:X 0.00018702
3 *3739:B2 *3732:A1 5.33005e-05
4 *3739:B2 *3736:B 2.14658e-05
5 *3739:B2 *319:28 2.15721e-05
6 *3732:A2 *3739:B2 5.52302e-05
7 *3732:B1 *3739:B2 5.89304e-05
8 *271:6 *3739:B2 8.09941e-05
9 *271:23 *3739:B2 3.08382e-06
*RES
1 *3738:X *3739:B2 22.6893 
*END

*D_NET *276 0.000850068
*CONN
*I *3741:A I *D sky130_fd_sc_hd__buf_1
*I *3740:X O *D sky130_fd_sc_hd__mux2_2
*CAP
1 *3741:A 0.00029074
2 *3740:X 0.00029074
3 *3741:A *3774:A 6.47439e-05
4 *3741:A *3825:CLK 6.05161e-06
5 *3741:A *289:46 0
6 *3741:A *333:16 0.000143025
7 *3825:D *3741:A 5.47676e-05
*RES
1 *3740:X *3741:A 32.4125 
*END

*D_NET *277 0.00104303
*CONN
*I *3743:A I *D sky130_fd_sc_hd__buf_1
*I *3742:X O *D sky130_fd_sc_hd__mux2_2
*CAP
1 *3743:A 0.000272759
2 *3742:X 0.000272759
3 *3743:A *3774:A 5.49544e-05
4 *3743:A *3825:CLK 0.000229899
5 *3743:A *295:24 7.5739e-05
6 *3743:A *333:28 5.45307e-05
7 *3824:D *3743:A 8.23859e-05
*RES
1 *3742:X *3743:A 34.2607 
*END

*D_NET *278 0.000507435
*CONN
*I *3745:A I *D sky130_fd_sc_hd__buf_1
*I *3744:X O *D sky130_fd_sc_hd__mux2_2
*CAP
1 *3745:A 5.58348e-05
2 *3744:X 5.58348e-05
3 *3745:A *333:28 0.000191093
4 *267:82 *3745:A 0.000204672
*RES
1 *3744:X *3745:A 21.1 
*END

*D_NET *279 0.00164711
*CONN
*I *3747:A I *D sky130_fd_sc_hd__buf_1
*I *3746:X O *D sky130_fd_sc_hd__mux2_2
*CAP
1 *3747:A 0.000554272
2 *3746:X 0.000554272
3 *3747:A *3748:A0 3.40128e-05
4 *3747:A *3890:A 1.16122e-05
5 *3747:A *286:68 0
6 *3747:A *331:12 0.000290993
7 *3702:A *3747:A 7.57394e-05
8 *267:30 *3747:A 3.69047e-06
9 *267:37 *3747:A 1.21258e-05
10 *267:47 *3747:A 7.98318e-05
11 *267:67 *3747:A 3.05605e-05
*RES
1 *3746:X *3747:A 38.3321 
*END

*D_NET *280 0.000904324
*CONN
*I *3749:A I *D sky130_fd_sc_hd__buf_1
*I *3748:X O *D sky130_fd_sc_hd__mux2_2
*CAP
1 *3749:A 0.00025304
2 *3748:X 0.00025304
3 *3749:A *3594:A1 0.000261554
4 irq *3749:A 7.83587e-05
5 *8:18 *3749:A 5.83304e-05
6 *267:30 *3749:A 0
*RES
1 *3748:X *3749:A 31.7518 
*END

*D_NET *281 0.000518224
*CONN
*I *3751:A I *D sky130_fd_sc_hd__buf_1
*I *3750:X O *D sky130_fd_sc_hd__mux2_2
*CAP
1 *3751:A 4.13706e-05
2 *3750:X 4.13706e-05
3 *3751:A *3592:A1 0.000217741
4 *3752:S *3751:A 0.000217741
*RES
1 *3750:X *3751:A 20.6982 
*END

*D_NET *282 0.000637484
*CONN
*I *3753:A I *D sky130_fd_sc_hd__buf_1
*I *3752:X O *D sky130_fd_sc_hd__mux2_2
*CAP
1 *3753:A 0.000295868
2 *3752:X 0.000295868
3 *3753:A *3592:A1 1.83136e-05
4 *3753:A *294:70 0
5 *3819:D *3753:A 2.74352e-05
*RES
1 *3752:X *3753:A 32.3321 
*END

*D_NET *283 0.000189064
*CONN
*I *3758:A I *D sky130_fd_sc_hd__buf_1
*I *3757:X O *D sky130_fd_sc_hd__mux2_2
*CAP
1 *3758:A 9.45318e-05
2 *3757:X 9.45318e-05
*RES
1 *3757:X *3758:A 20.2786 
*END

*D_NET *284 0.0017312
*CONN
*I *3762:B1 I *D sky130_fd_sc_hd__o22ai_2
*I *3760:B1 I *D sky130_fd_sc_hd__a22o_2
*I *3759:X O *D sky130_fd_sc_hd__or2b_2
*CAP
1 *3762:B1 0
2 *3760:B1 0.000228348
3 *3759:X 4.09642e-05
4 *284:8 0.000269312
5 *3760:B1 *3760:B2 0
6 *3760:B1 *337:10 0.000242713
7 pll_trim[0] *3760:B1 0.000170654
8 pll_trim[0] *284:8 0.00015234
9 *3760:A1 *3760:B1 5.65955e-05
10 *3760:A2 *3760:B1 7.3814e-05
11 *3814:D *3760:B1 0.000183713
12 *31:48 *3760:B1 0.000170654
13 *31:48 *284:8 0.00014209
*RES
1 *3759:X *284:8 15.7464 
2 *284:8 *3760:B1 20.8357 
3 *284:8 *3762:B1 13.8 
*END

*D_NET *285 0.000411311
*CONN
*I *3762:B2 I *D sky130_fd_sc_hd__o22ai_2
*I *3761:Y O *D sky130_fd_sc_hd__inv_2
*CAP
1 *3762:B2 0.000142057
2 *3761:Y 0.000142057
3 *3762:B2 *338:20 0.000110576
4 *3762:A1 *3762:B2 1.32056e-05
5 *3762:A2 *3762:B2 3.41517e-06
*RES
1 *3761:Y *3762:B2 21.2071 
*END

*D_NET *286 0.0178759
*CONN
*I *3765:A I *D sky130_fd_sc_hd__inv_2
*I *3764:A I *D sky130_fd_sc_hd__inv_2
*I *3775:A I *D sky130_fd_sc_hd__inv_2
*I *3774:A I *D sky130_fd_sc_hd__inv_2
*I *3776:A I *D sky130_fd_sc_hd__inv_2
*I *3773:A I *D sky130_fd_sc_hd__inv_2
*I *3771:A I *D sky130_fd_sc_hd__inv_2
*I *3770:A I *D sky130_fd_sc_hd__inv_2
*I *3772:A I *D sky130_fd_sc_hd__inv_2
*I *3766:A I *D sky130_fd_sc_hd__inv_2
*I *3763:X O *D sky130_fd_sc_hd__buf_1
*CAP
1 *3765:A 0.000267581
2 *3764:A 0
3 *3775:A 0.000112457
4 *3774:A 0.000404748
5 *3776:A 0.000363136
6 *3773:A 2.23854e-05
7 *3771:A 2.09459e-05
8 *3770:A 0
9 *3772:A 0.000145497
10 *3766:A 2.22847e-05
11 *3763:X 0.00138066
12 *286:138 0.000449557
13 *286:89 0.000979845
14 *286:68 0.000582314
15 *286:47 0.0010948
16 *286:45 0.0010433
17 *286:31 0.000991484
18 *286:27 0.000864394
19 *286:25 0.00113281
20 *286:14 0.00174839
21 *3771:A *289:42 7.14951e-05
22 *3771:A *294:101 0.000143652
23 *3772:A *3890:A 5.33005e-05
24 *3774:A *3825:CLK 3.63281e-05
25 *3774:A *289:46 0
26 *3774:A *333:16 2.71515e-05
27 *3774:A *333:28 1.34548e-05
28 *3775:A *3854:CLK 3.08664e-05
29 *3775:A *295:18 1.02132e-05
30 *3775:A *295:24 5.28427e-05
31 *3776:A *3740:A0 0.000216824
32 *3776:A *3740:A1 5.45307e-05
33 *3776:A *333:16 0
34 *286:14 *3569:A0 6.96796e-05
35 *286:14 *3569:S 0.00048091
36 *286:14 *3757:A1 0.000300703
37 *286:14 *339:17 5.16489e-05
38 *286:27 *295:18 0.000170363
39 *286:31 *3598:A1 0
40 *286:31 *295:18 3.07555e-05
41 *286:31 *295:24 0
42 *286:45 *3824:CLK 0.000182872
43 *286:45 *295:24 2.06507e-05
44 *286:47 *3890:A 0.000383368
45 *286:47 *294:12 7.94648e-05
46 *286:68 *3748:A0 0
47 *286:68 *289:42 2.36643e-05
48 *286:68 *294:101 9.83442e-05
49 *286:68 *330:10 3.34672e-05
50 *286:68 *331:12 0
51 *286:89 *3740:A0 6.84519e-05
52 *286:89 *3824:CLK 0
53 *286:89 *3825:CLK 0
54 *286:89 *295:24 0
55 *286:89 *333:16 0
56 *286:89 *334:14 0
57 irq *286:68 0
58 pll_trim[0] *3765:A 0
59 pll_trim[0] *286:27 0.000768608
60 pll_trim[0] *286:138 0.000193592
61 *3570:B *286:14 1.01949e-05
62 *3588:A1 *286:27 0
63 *3599:A *286:27 0.000247764
64 *3608:A1 *286:14 0.000184745
65 *3740:S *3774:A 2.32517e-05
66 *3741:A *3774:A 6.47439e-05
67 *3743:A *3774:A 5.49544e-05
68 *3747:A *286:68 0
69 *3757:S *286:14 0.000252623
70 *3814:SET_B *3765:A 8.60574e-05
71 *3815:RESET_B *3765:A 0.000183028
72 *3816:D *286:14 0
73 *3816:RESET_B *286:14 3.18676e-05
74 *3819:RESET_B *286:68 5.68713e-05
75 *3820:RESET_B *286:68 0.000307878
76 *3821:RESET_B *3772:A 3.18676e-05
77 *3822:RESET_B *286:45 0.00027218
78 *3824:RESET_B *286:31 1.21955e-05
79 *3824:RESET_B *286:89 4.95138e-05
80 *3825:RESET_B *3776:A 3.08664e-05
81 *3851:D *286:27 6.74911e-05
82 *3853:RESET_B *286:27 0
83 *3859:RESET_B *286:27 1.00375e-05
84 *4:101 *286:14 7.58571e-05
85 *4:111 *286:14 9.41642e-05
86 *33:10 *286:27 0.000151333
87 *35:25 *286:27 0
88 *49:32 *286:27 7.83659e-05
89 *267:30 *286:68 0.000179484
90 *267:82 *3774:A 2.47833e-05
*RES
1 *3763:X *286:14 41.7643 
2 *286:14 *3766:A 9.72857 
3 *286:14 *286:25 9.55357 
4 *286:25 *286:27 16.5179 
5 *286:27 *286:31 2.33036 
6 *286:31 *286:45 14.8304 
7 *286:45 *286:47 7.92857 
8 *286:47 *3772:A 11.9071 
9 *286:47 *286:68 20.75 
10 *286:68 *3770:A 9.3 
11 *286:68 *3771:A 10.6571 
12 *286:45 *3773:A 9.72857 
13 *286:31 *286:89 4.83036 
14 *286:89 *3776:A 21.2821 
15 *286:89 *3774:A 29.2286 
16 *286:27 *3775:A 16.0143 
17 *286:25 *286:138 8.41071 
18 *286:138 *3764:A 9.3 
19 *286:138 *3765:A 23.675 
*END

*D_NET *287 0.00281011
*CONN
*I *3887:A I *D sky130_fd_sc_hd__clkbuf_16
*I *3767:X O *D sky130_fd_sc_hd__buf_1
*CAP
1 *3887:A 0.000546064
2 *3767:X 0.000546064
3 *3887:A *323:14 0.000342943
4 *3682:B2 *3887:A 1.02504e-05
5 *3688:A2 *3887:A 7.57869e-05
6 *3700:B2 *3887:A 6.607e-06
7 *3702:B *3887:A 9.11365e-06
8 *3706:A1 *3887:A 1.26641e-05
9 *3707:A1 *3887:A 0.000261227
10 *3713:A1 *3887:A 0.000172375
11 *2:33 *3887:A 2.65105e-05
12 *53:66 *3887:A 0
13 *163:71 *3887:A 0.000163753
14 *234:45 *3887:A 0.000478151
15 *234:51 *3887:A 0.000105446
16 *234:55 *3887:A 5.31541e-05
*RES
1 *3767:X *3887:A 42.6357 
*END

*D_NET *288 0.0186762
*CONN
*I *3797:A I *D sky130_fd_sc_hd__inv_2
*I *3793:A I *D sky130_fd_sc_hd__inv_2
*I *3778:A I *D sky130_fd_sc_hd__inv_2
*I *3780:A I *D sky130_fd_sc_hd__inv_2
*I *3779:A I *D sky130_fd_sc_hd__inv_2
*I *3796:A I *D sky130_fd_sc_hd__inv_2
*I *3795:A I *D sky130_fd_sc_hd__inv_2
*I *3794:A I *D sky130_fd_sc_hd__inv_2
*I *3792:A I *D sky130_fd_sc_hd__inv_2
*I *3789:A I *D sky130_fd_sc_hd__inv_2
*I *3777:X O *D sky130_fd_sc_hd__buf_1
*CAP
1 *3797:A 0.000795816
2 *3793:A 3.82418e-05
3 *3778:A 0
4 *3780:A 0.000275798
5 *3779:A 2.22847e-05
6 *3796:A 0.000530124
7 *3795:A 0.000210692
8 *3794:A 0
9 *3792:A 0.000369541
10 *3789:A 0.000214967
11 *3777:X 0.000413543
12 *288:134 0.00104327
13 *288:115 0.000820777
14 *288:87 0.0010153
15 *288:83 0.000866729
16 *288:66 0.00180521
17 *288:35 0.00186763
18 *288:16 0.000756233
19 *288:14 0.000722884
20 *288:8 0.00160684
21 *3780:A *321:16 0.000125731
22 *3789:A *3839:CLK 0.000183726
23 *3789:A *309:18 3.14626e-05
24 *3789:A *337:43 0.000176234
25 *3789:A *338:76 7.92975e-05
26 *3792:A *3660:A1 0
27 *3792:A *308:12 0.000197984
28 *3792:A *308:47 8.31405e-05
29 *3795:A *311:10 0.000141734
30 *3797:A *3632:A1 1.21371e-05
31 *3797:A *313:14 5.03772e-05
32 *3797:A *315:14 2.59387e-05
33 *3797:A *315:32 3.08382e-06
34 *288:8 *3625:A 6.01248e-05
35 *288:8 *3625:B 2.37349e-05
36 *288:14 *3634:A 6.42242e-05
37 *288:14 *314:27 3.46272e-05
38 *288:16 *3655:A1 8.2958e-06
39 *288:16 *309:10 7.15591e-05
40 *288:16 *309:18 6.09572e-05
41 *288:66 *3656:A 6.05161e-06
42 *288:66 *3841:CLK 1.97621e-05
43 *288:66 *308:47 3.0102e-05
44 *288:66 *310:12 0.000262476
45 *288:83 *3736:B 6.05161e-06
46 *288:83 *297:47 0
47 *288:134 *297:34 0
48 *288:134 *297:47 0
49 *288:134 *319:16 0.000186662
50 *288:134 *320:10 0
51 *288:134 *320:22 0
52 pll_bypass *288:83 0.000116545
53 *3565:A_N *288:8 4.87854e-05
54 *3565:A_N *288:14 9.10431e-06
55 *3567:B *3797:A 2.41865e-05
56 *3567:B *288:14 7.83587e-05
57 *3610:A1 *288:14 3.28897e-05
58 *3629:A0 *3797:A 0.000100831
59 *3629:A0 *288:8 7.48301e-06
60 *3629:S *3797:A 0.000133269
61 *3631:A2 *288:8 2.59355e-05
62 *3631:B1 *3797:A 4.77058e-05
63 *3632:B1 *3797:A 5.24274e-05
64 *3636:B *3796:A 0
65 *3640:A2 *3797:A 0.000110532
66 *3640:B2 *3797:A 0.000103907
67 *3654:A *288:66 2.61099e-05
68 *3659:A0 *3792:A 5.25337e-05
69 *3660:A0 *3792:A 0
70 *3660:S *3792:A 0.000139208
71 *3731:A1 *3792:A 7.35235e-05
72 *3733:A *288:134 3.50166e-05
73 *3735:A2 *3780:A 0
74 *3826:D *288:134 0
75 *3826:RESET_B *288:134 0
76 *3827:D *288:83 5.33882e-05
77 *3827:RESET_B *288:83 0
78 *3827:RESET_B *288:115 6.05161e-06
79 *3827:RESET_B *288:134 2.23592e-05
80 *3828:RESET_B *3780:A 0.000132161
81 *3840:RESET_B *288:14 1.02504e-05
82 *3840:RESET_B *288:16 0.000364253
83 *3841:D *288:66 0.000100625
84 *3841:RESET_B *288:66 3.53865e-05
85 *3842:RESET_B *3795:A 9.51594e-05
86 *3843:D *3796:A 0
87 *3843:RESET_B *3796:A 5.65955e-05
88 *3844:RESET_B *3797:A 0.000187041
89 *4:169 *3792:A 0.000119859
90 *147:14 *3789:A 0
91 *174:26 *3792:A 0
92 *183:12 *288:14 0.000103983
93 *183:12 *288:16 0.000311519
94 *183:16 *3789:A 6.92148e-06
95 *183:33 *288:35 0.000234809
96 *183:33 *288:66 8.36572e-05
97 *183:50 *288:66 9.11536e-05
98 *190:25 *288:66 4.63699e-05
99 *190:29 *288:66 6.37797e-06
100 *201:16 *3797:A 6.85998e-05
*RES
1 *3777:X *288:8 18.8536 
2 *288:8 *288:14 8.07143 
3 *288:14 *288:16 8.32143 
4 *288:16 *3789:A 19.3893 
5 *288:16 *288:35 7.91071 
6 *288:35 *3792:A 26.6214 
7 *288:35 *288:66 26.0179 
8 *288:66 *3794:A 9.3 
9 *288:66 *288:83 18.9821 
10 *288:83 *288:87 9.17857 
11 *288:87 *3795:A 17.9429 
12 *288:87 *3796:A 23.1214 
13 *288:83 *288:115 0.535714 
14 *288:115 *3779:A 9.72857 
15 *288:115 *288:134 23.0179 
16 *288:134 *3780:A 23.8179 
17 *288:134 *3778:A 9.3 
18 *288:14 *3793:A 14.5321 
19 *288:8 *3797:A 30.55 
*END

*D_NET *289 0.018662
*CONN
*I *3810:A I *D sky130_fd_sc_hd__inv_2
*I *3805:A I *D sky130_fd_sc_hd__inv_2
*I *3811:A I *D sky130_fd_sc_hd__inv_2
*I *3806:A I *D sky130_fd_sc_hd__inv_2
*I *3812:A I *D sky130_fd_sc_hd__inv_2
*I *3791:A I *D sky130_fd_sc_hd__inv_2
*I *3804:A I *D sky130_fd_sc_hd__inv_2
*I *3807:A I *D sky130_fd_sc_hd__inv_2
*I *3809:A I *D sky130_fd_sc_hd__inv_2
*I *3808:A I *D sky130_fd_sc_hd__inv_2
*I *3790:X O *D sky130_fd_sc_hd__buf_1
*CAP
1 *3810:A 0
2 *3805:A 0.000111686
3 *3811:A 0.000667168
4 *3806:A 0
5 *3812:A 0
6 *3791:A 3.85755e-05
7 *3804:A 0
8 *3807:A 0.00027691
9 *3809:A 2.7879e-05
10 *3808:A 0.000114502
11 *3790:X 0.000475618
12 *289:100 0.000712583
13 *289:93 0.000580656
14 *289:76 0.000716077
15 *289:54 0.000915032
16 *289:46 0.00152663
17 *289:42 0.00244174
18 *289:38 0.00161783
19 *289:29 0.000342278
20 *289:12 0.000870488
21 *3809:A *294:72 5.33005e-05
22 *3811:A *3858:CLK 3.28548e-05
23 *289:12 *3767:A 1.46148e-05
24 *289:12 *294:44 0.000149966
25 *289:29 *294:70 0.000117997
26 *289:38 *294:72 9.90431e-05
27 *289:42 *3823:CLK 0.000107866
28 *289:42 *294:72 1.74352e-05
29 *289:42 *294:94 1.64583e-05
30 *289:42 *294:101 0.0002624
31 *289:46 *3602:A1 6.98302e-05
32 *289:46 *3825:CLK 0
33 *289:46 *332:14 0.000389847
34 *289:46 *333:16 0
35 *289:93 *3853:CLK 9.77746e-05
36 *289:93 *3858:CLK 0.000355329
37 *289:93 *295:79 0.000114148
38 *289:93 *295:99 3.47641e-06
39 *289:100 *3858:CLK 0.00013017
40 pll_trim[0] *289:93 0
41 pll_trim[1] *289:46 0.000128868
42 *3588:S *3811:A 1.99881e-05
43 *3589:A *3811:A 5.71472e-05
44 *3596:S *3807:A 0.000343203
45 *3602:A0 *289:46 5.58941e-05
46 *3602:A0 *289:76 0.000270943
47 *3602:A0 *289:93 5.06736e-05
48 *3603:A *289:54 6.46083e-05
49 *3702:A *289:54 0.000269378
50 *3741:A *289:46 0
51 *3771:A *289:42 7.14951e-05
52 *3774:A *289:46 0
53 *3813:A *289:12 5.20669e-05
54 *3819:RESET_B *289:42 0.000269268
55 *3822:RESET_B *289:46 0.000126439
56 *3823:D *289:46 0.000272665
57 *3823:RESET_B *289:46 0.000129868
58 *3851:RESET_B *289:54 1.83053e-05
59 *3852:RESET_B *3805:A 5.33005e-05
60 *3852:RESET_B *289:42 0.000265718
61 *3853:D *289:93 3.34366e-05
62 *3854:RESET_B *3807:A 2.27416e-05
63 *3856:SET_B *289:42 0
64 *3858:D *3811:A 5.018e-05
65 *3858:SET_B *3811:A 2.56694e-05
66 *3859:RESET_B *289:93 3.08664e-05
67 *3859:RESET_B *289:100 7.20217e-06
68 *2:33 *289:12 4.00025e-05
69 *16:28 *289:29 0.000358387
70 *33:10 *289:93 0
71 *33:16 *3791:A 3.08382e-06
72 *33:16 *289:93 3.45453e-05
73 *34:12 *289:42 2.53402e-05
74 *34:30 *289:12 0.000363473
75 *34:30 *289:29 0.000175892
76 *36:16 *3807:A 0.000271791
77 *36:41 *3807:A 9.76123e-05
78 *36:41 *289:54 0.000810761
79 *49:14 *3811:A 2.44318e-05
80 *49:32 *289:93 0.000141985
81 *165:22 *289:29 6.57032e-05
82 *165:85 *289:54 1.98839e-05
83 *165:98 *3807:A 4.73656e-05
84 *286:68 *289:42 2.36643e-05
*RES
1 *3790:X *289:12 28.6929 
2 *289:12 *3808:A 11.0857 
3 *289:12 *289:29 16.2679 
4 *289:29 *3809:A 9.83571 
5 *289:29 *289:38 0.946429 
6 *289:38 *289:42 21.8036 
7 *289:42 *289:46 20.7143 
8 *289:46 *289:54 17.6964 
9 *289:54 *3807:A 25.8714 
10 *289:54 *3804:A 9.3 
11 *289:46 *289:76 7.96429 
12 *289:76 *3791:A 10.0321 
13 *289:76 *289:93 19.2857 
14 *289:93 *3812:A 9.3 
15 *289:93 *289:100 1.35714 
16 *289:100 *3806:A 9.3 
17 *289:100 *3811:A 27.7464 
18 *289:42 *3805:A 10.9786 
19 *289:38 *3810:A 9.3 
*END

*D_NET *290 0.00945493
*CONN
*I *3892:A I *D sky130_fd_sc_hd__clkbuf_16
*I *3893:A I *D sky130_fd_sc_hd__clkbuf_16
*I *3891:A I *D sky130_fd_sc_hd__clkbuf_16
*I *3890:A I *D sky130_fd_sc_hd__clkbuf_16
*I *3886:X O *D sky130_fd_sc_hd__clkbuf_16
*CAP
1 *3892:A 0.00144684
2 *3893:A 0.000119874
3 *3891:A 0.00011987
4 *3890:A 0.000677216
5 *3886:X 0
6 *290:34 0.00183498
7 *290:8 0.00182698
8 *290:6 0.00129816
9 *3890:A *294:12 0.000150103
10 *3892:A *310:25 1.94945e-05
11 *290:8 *3571:A0 0
12 *290:8 *3586:A 0
13 *290:8 *3665:A0 3.42301e-05
14 *290:34 *3569:A0 0.000141863
15 *290:34 *310:25 0.000224772
16 *3574:D *290:8 0
17 *3581:S *290:8 0.000124083
18 *3623:B1 *3893:A 0.000142856
19 *3665:S *290:8 0.000309281
20 *3728:A *290:34 0
21 *3747:A *3890:A 1.16122e-05
22 *3772:A *3890:A 5.33005e-05
23 *3822:D *3890:A 0.000101363
24 *4:58 *3891:A 0.000102207
25 *4:67 *290:8 0
26 *144:21 *290:34 0.000188218
27 *144:30 *3893:A 0.000137983
28 *150:8 *290:8 0
29 *154:12 *290:8 0
30 *188:12 *3892:A 6.27272e-06
31 *286:47 *3890:A 0.000383368
*RES
1 *3886:X *290:6 13.8 
2 *290:6 *290:8 18.6429 
3 *290:8 *3890:A 26.8179 
4 *290:8 *3891:A 16.3893 
5 *290:6 *290:34 5.89286 
6 *290:34 *3893:A 16.3893 
7 *290:34 *3892:A 23.4546 
*END

*D_NET *291 0.00610584
*CONN
*I *3889:A I *D sky130_fd_sc_hd__clkbuf_16
*I *3888:A I *D sky130_fd_sc_hd__clkbuf_16
*I *3887:X O *D sky130_fd_sc_hd__clkbuf_16
*CAP
1 *3889:A 0.000305131
2 *3888:A 0.00238889
3 *3887:X 5.17213e-05
4 *291:10 0.00274575
5 *3889:A *3692:A1 4.63699e-05
6 *3710:A *3888:A 0.000162851
7 *3894:select *3888:A 0
8 *5:16 *291:10 1.83136e-05
9 *176:10 *3889:A 1.02504e-05
10 *176:12 *3889:A 0.0002653
11 *176:12 *291:10 6.27272e-06
12 *228:45 *3888:A 0.000104988
13 *230:24 *3889:A 0
14 *230:32 *3889:A 0
*RES
1 *3887:X *291:10 14.6125 
2 *291:10 *3888:A 35.2359 
3 *291:10 *3889:A 20.3089 
*END

*D_NET *292 0.00955146
*CONN
*I *3785:A I *D sky130_fd_sc_hd__inv_2
*I *3769:A I *D sky130_fd_sc_hd__inv_2
*I *3784:A I *D sky130_fd_sc_hd__inv_2
*I *3781:A I *D sky130_fd_sc_hd__inv_2
*I *3782:A I *D sky130_fd_sc_hd__inv_2
*I *3783:A I *D sky130_fd_sc_hd__inv_2
*I *3888:X O *D sky130_fd_sc_hd__clkbuf_16
*CAP
1 *3785:A 0.000170412
2 *3769:A 0.000751271
3 *3784:A 0.000100496
4 *3781:A 0.000794489
5 *3782:A 2.22847e-05
6 *3783:A 0
7 *3888:X 0.000350932
8 *292:76 0.00137306
9 *292:61 0.000842841
10 *292:23 0.00149126
11 *292:14 0.000753778
12 *292:8 0.00072119
13 *3769:A *3700:A1 0.000123288
14 *3769:A *3818:CLK 2.89016e-05
15 *3785:A *3833:CLK 0.000100831
16 *292:23 *3831:CLK 9.99853e-05
17 *292:23 *324:10 3.18676e-05
18 *292:61 *3832:CLK 0
19 *292:76 *3894:I1 4.9743e-05
20 *3691:A1 *3781:A 0.000199965
21 *3691:B1 *3769:A 0
22 *3691:B2 *3769:A 3.99614e-06
23 *3695:A *3785:A 0
24 *3697:A1 *3781:A 0
25 *3699:A1 *3781:A 2.04318e-05
26 *3699:A2 *3781:A 1.98839e-05
27 *3699:A3 *3781:A 5.33005e-05
28 *3699:B1 *3781:A 0.000143651
29 *3700:B2 *3769:A 0
30 *3701:A *3784:A 0
31 *3702:B *3781:A 6.1976e-05
32 *3703:C1 *3781:A 9.98961e-05
33 *3707:A1 *3781:A 0.000110341
34 *3818:SET_B *292:76 5.56943e-05
35 *3831:D *292:8 0
36 *3831:D *292:61 0
37 *3832:RESET_B *292:61 0
38 *3832:RESET_B *292:76 0
39 *3833:D *3769:A 0.000305138
40 *3894:I0 *3769:A 6.44158e-06
41 *5:16 *3769:A 6.02753e-05
42 *14:25 *3784:A 8.07313e-05
43 *35:29 *3781:A 0
44 *53:35 *3781:A 0.000351951
45 *176:12 *3769:A 4.33438e-05
46 *176:16 *3769:A 3.17148e-05
47 *228:22 *3785:A 0
48 *228:22 *292:76 0
49 *228:26 *292:76 0
50 *230:32 *3769:A 9.60939e-05
*RES
1 *3888:X *292:8 19.9964 
2 *292:8 *292:14 5.875 
3 *292:14 *3783:A 9.3 
4 *292:14 *292:23 11.2321 
5 *292:23 *3782:A 9.72857 
6 *292:23 *3781:A 37.2094 
7 *292:8 *292:61 4.67857 
8 *292:61 *3784:A 15.8893 
9 *292:61 *292:76 7.94643 
10 *292:76 *3769:A 34.1571 
11 *292:76 *3785:A 17.0857 
*END

*D_NET *293 0.00653187
*CONN
*I *3768:A I *D sky130_fd_sc_hd__inv_2
*I *3787:A I *D sky130_fd_sc_hd__inv_2
*I *3786:A I *D sky130_fd_sc_hd__inv_2
*I *3788:A I *D sky130_fd_sc_hd__inv_2
*I *3889:X O *D sky130_fd_sc_hd__clkbuf_16
*CAP
1 *3768:A 0.000259663
2 *3787:A 0.000217478
3 *3786:A 0.000605824
4 *3788:A 0.000250704
5 *3889:X 0
6 *293:21 0.00155984
7 *293:4 0.0012469
8 *3768:A *328:14 2.44318e-05
9 *3787:A *3835:CLK 0.000152922
10 *293:21 *327:8 8.00806e-05
11 *3682:B2 *3768:A 0.000136951
12 *3684:B *293:21 0.00014285
13 *3688:A1 *3768:A 0.000111788
14 *3688:A2 *3788:A 5.68713e-05
15 *3689:B1 *293:21 2.58997e-05
16 *3689:B2 *3768:A 0.000129944
17 *3689:B2 *3788:A 0.000265441
18 *3694:A *3786:A 0.000343604
19 *3694:A *293:21 0
20 *3717:A *3788:A 0.000296285
21 *3717:A *293:21 0.000107309
22 *3834:D *3786:A 0
23 *3834:RESET_B *3786:A 2.14083e-05
24 *48:13 *293:21 8.23481e-05
25 *176:10 *3787:A 7.80714e-06
26 *176:10 *293:21 0.000124342
27 *228:16 *3786:A 0.000117621
28 *228:18 *3786:A 0
29 *230:18 *3768:A 5.52302e-05
30 *234:18 *3768:A 9.22103e-06
31 *234:24 *3768:A 9.91086e-05
*RES
1 *3889:X *293:4 9.3 
2 *293:4 *3788:A 15.6214 
3 *293:4 *293:21 16.3929 
4 *293:21 *3786:A 34.7821 
5 *293:21 *3787:A 17.9429 
6 *293:4 *3768:A 24.3 
*END

*D_NET *294 0.0125816
*CONN
*I *3821:CLK I *D sky130_fd_sc_hd__dfrtp_2
*I *3820:CLK I *D sky130_fd_sc_hd__dfrtp_2
*I *3823:CLK I *D sky130_fd_sc_hd__dfrtp_2
*I *3852:CLK I *D sky130_fd_sc_hd__dfrtp_2
*I *3819:CLK I *D sky130_fd_sc_hd__dfrtp_2
*I *3857:CLK I *D sky130_fd_sc_hd__dfstp_2
*I *3856:CLK I *D sky130_fd_sc_hd__dfstp_2
*I *3860:CLK I *D sky130_fd_sc_hd__dfrtp_2
*I *3855:CLK I *D sky130_fd_sc_hd__dfstp_2
*I *3767:A I *D sky130_fd_sc_hd__buf_1
*I *3822:CLK I *D sky130_fd_sc_hd__dfrtp_2
*I *3890:X O *D sky130_fd_sc_hd__clkbuf_16
*CAP
1 *3821:CLK 0
2 *3820:CLK 5.63248e-05
3 *3823:CLK 0.00027831
4 *3852:CLK 0
5 *3819:CLK 0
6 *3857:CLK 0.000148466
7 *3856:CLK 0.000144665
8 *3860:CLK 0
9 *3855:CLK 0
10 *3767:A 0.000187638
11 *3822:CLK 0
12 *3890:X 0.000184127
13 *294:101 0.000684385
14 *294:94 0.000430259
15 *294:72 0.000802874
16 *294:70 0.000769711
17 *294:66 0.000685405
18 *294:51 0.000454393
19 *294:44 0.000239186
20 *294:25 0.000743295
21 *294:23 0.00127894
22 *294:12 0.0010855
23 *3767:A *323:14 0
24 *3823:CLK *3750:A0 0
25 *294:23 *331:12 1.20741e-05
26 *294:101 *329:10 0.000125057
27 *3577:A *294:23 0
28 *3577:A *294:25 0.000141132
29 *3590:S *294:66 1.52978e-05
30 *3590:S *294:70 0.000100009
31 *3753:A *294:70 0
32 *3771:A *294:101 0.000143652
33 *3809:A *294:72 5.33005e-05
34 *3813:A *3767:A 4.33899e-05
35 *3813:A *294:25 0.000224315
36 *3819:RESET_B *294:101 0.000118441
37 *3820:RESET_B *294:101 0.000122254
38 *3852:D *3823:CLK 9.42115e-05
39 *3856:D *3857:CLK 1.02504e-05
40 *3856:SET_B *294:72 0.00040376
41 *3857:D *3857:CLK 0
42 *3860:D *294:66 5.83118e-05
43 *3860:RESET_B *294:25 0.000531839
44 *3890:A *294:12 0.000150103
45 *2:33 *3767:A 0.000457022
46 *2:33 *294:44 4.13122e-06
47 *4:17 *3823:CLK 2.89114e-05
48 *4:35 *3823:CLK 1.02132e-05
49 *16:28 *294:66 0.000182561
50 *16:28 *294:70 0
51 *32:33 *3857:CLK 0
52 *34:12 *3823:CLK 0
53 *34:30 *3820:CLK 0.000144233
54 *165:16 *294:66 0
55 *165:18 *3820:CLK 0.000173387
56 *165:22 *3820:CLK 9.66977e-05
57 *286:47 *294:12 7.94648e-05
58 *286:68 *294:101 9.83442e-05
59 *289:12 *3767:A 1.46148e-05
60 *289:12 *294:44 0.000149966
61 *289:29 *294:70 0.000117997
62 *289:38 *294:72 9.90431e-05
63 *289:42 *3823:CLK 0.000107866
64 *289:42 *294:72 1.74352e-05
65 *289:42 *294:94 1.64583e-05
66 *289:42 *294:101 0.0002624
*RES
1 *3890:X *294:12 21.6036 
2 *294:12 *3822:CLK 9.3 
3 *294:12 *294:23 10.5179 
4 *294:23 *294:25 9.16071 
5 *294:25 *3767:A 14.3714 
6 *294:25 *294:44 12.3214 
7 *294:44 *3855:CLK 9.3 
8 *294:44 *294:51 0.946429 
9 *294:51 *3860:CLK 9.3 
10 *294:51 *294:66 12.625 
11 *294:66 *294:70 9.17857 
12 *294:70 *294:72 9.98214 
13 *294:72 *3856:CLK 11.4786 
14 *294:72 *3857:CLK 20.9786 
15 *294:70 *294:94 0.535714 
16 *294:94 *3819:CLK 9.3 
17 *294:94 *294:101 11.2143 
18 *294:101 *3852:CLK 9.3 
19 *294:101 *3823:CLK 24.2107 
20 *294:66 *3820:CLK 16.3893 
21 *294:23 *3821:CLK 9.3 
*END

*D_NET *295 0.00884207
*CONN
*I *3815:CLK I *D sky130_fd_sc_hd__dfrtp_2
*I *3816:CLK I *D sky130_fd_sc_hd__dfrtp_2
*I *3859:CLK I *D sky130_fd_sc_hd__dfrtp_2
*I *3858:CLK I *D sky130_fd_sc_hd__dfstp_2
*I *3838:CLK I *D sky130_fd_sc_hd__dfrtp_2
*I *3853:CLK I *D sky130_fd_sc_hd__dfrtp_2
*I *3851:CLK I *D sky130_fd_sc_hd__dfrtp_2
*I *3854:CLK I *D sky130_fd_sc_hd__dfrtp_2
*I *3824:CLK I *D sky130_fd_sc_hd__dfrtp_2
*I *3825:CLK I *D sky130_fd_sc_hd__dfrtp_2
*I *3891:X O *D sky130_fd_sc_hd__clkbuf_16
*CAP
1 *3815:CLK 0.000215036
2 *3816:CLK 7.92449e-05
3 *3859:CLK 5.0277e-05
4 *3858:CLK 0.000284038
5 *3838:CLK 8.50198e-05
6 *3853:CLK 4.28663e-05
7 *3851:CLK 0
8 *3854:CLK 0.000162879
9 *3824:CLK 0.00018798
10 *3825:CLK 0.00027669
11 *3891:X 0
12 *295:110 0.000781385
13 *295:99 0.00069496
14 *295:81 0.000369058
15 *295:79 0.000331497
16 *295:66 0.000289762
17 *295:24 0.000733501
18 *295:18 0.000708278
19 *295:10 0.000470874
20 *295:4 0.000267285
21 *3825:CLK *333:16 0.000150618
22 pll_trim[0] *295:99 0
23 *3599:A *295:10 9.60875e-05
24 *3599:A *295:18 9.25014e-06
25 *3602:A0 *295:66 0
26 *3741:A *3825:CLK 6.05161e-06
27 *3743:A *3825:CLK 0.000229899
28 *3743:A *295:24 7.5739e-05
29 *3774:A *3825:CLK 3.63281e-05
30 *3775:A *3854:CLK 3.08664e-05
31 *3775:A *295:18 1.02132e-05
32 *3775:A *295:24 5.28427e-05
33 *3811:A *3858:CLK 3.28548e-05
34 *3815:D *3815:CLK 5.71124e-05
35 *3816:D *3815:CLK 0
36 *3816:D *3816:CLK 0
37 *3816:D *295:110 0
38 *3816:RESET_B *295:110 0
39 *3824:D *3824:CLK 2.84026e-05
40 *3825:D *3825:CLK 1.56e-05
41 *3838:D *295:79 0
42 *3851:D *295:10 4.29414e-05
43 *3853:D *295:10 0.000144773
44 *3853:D *295:66 9.91224e-05
45 *3853:D *295:79 9.11048e-06
46 *3853:RESET_B *3858:CLK 5.06672e-05
47 *3859:D *3859:CLK 7.8195e-05
48 *31:10 *3859:CLK 9.93955e-05
49 *33:10 *295:10 0.000138605
50 *33:16 *3853:CLK 6.22801e-05
51 *49:32 *3838:CLK 0.00012306
52 *49:32 *3858:CLK 2.58821e-05
53 *286:27 *295:18 0.000170363
54 *286:31 *295:18 3.07555e-05
55 *286:31 *295:24 0
56 *286:45 *3824:CLK 0.000182872
57 *286:45 *295:24 2.06507e-05
58 *286:89 *3824:CLK 0
59 *286:89 *3825:CLK 0
60 *286:89 *295:24 0
61 *289:46 *3825:CLK 0
62 *289:93 *3853:CLK 9.77746e-05
63 *289:93 *3858:CLK 0.000355329
64 *289:93 *295:79 0.000114148
65 *289:93 *295:99 3.47641e-06
66 *289:100 *3858:CLK 0.00013017
*RES
1 *3891:X *295:4 9.3 
2 *295:4 *295:10 4.67857 
3 *295:10 *295:18 14.4107 
4 *295:18 *295:24 9.59821 
5 *295:24 *3825:CLK 20.1304 
6 *295:24 *3824:CLK 17.4875 
7 *295:18 *3854:CLK 11.8893 
8 *295:10 *3851:CLK 9.3 
9 *295:4 *295:66 5.83929 
10 *295:66 *3853:CLK 15.175 
11 *295:66 *295:79 3.16071 
12 *295:79 *295:81 4.5 
13 *295:81 *3838:CLK 11.4786 
14 *295:81 *3858:CLK 16.0143 
15 *295:79 *295:99 2.55357 
16 *295:99 *3859:CLK 15.5679 
17 *295:99 *295:110 8.01786 
18 *295:110 *3816:CLK 15.1929 
19 *295:110 *3815:CLK 17.5143 
*END

*D_NET *296 0.0132371
*CONN
*I *3846:CLK I *D sky130_fd_sc_hd__dfrtp_2
*I *3845:CLK I *D sky130_fd_sc_hd__dfrtp_2
*I *3840:CLK I *D sky130_fd_sc_hd__dfrtp_2
*I *3847:CLK I *D sky130_fd_sc_hd__dfrtp_2
*I *3848:CLK I *D sky130_fd_sc_hd__dfrtp_2
*I *3849:CLK I *D sky130_fd_sc_hd__dfrtp_2
*I *3839:CLK I *D sky130_fd_sc_hd__dfrtp_2
*I *3837:CLK I *D sky130_fd_sc_hd__dfrtp_2
*I *3850:CLK I *D sky130_fd_sc_hd__dfrtp_2
*I *3892:X O *D sky130_fd_sc_hd__clkbuf_16
*CAP
1 *3846:CLK 0.000388157
2 *3845:CLK 0.000233889
3 *3840:CLK 0.000155817
4 *3847:CLK 0.000127547
5 *3848:CLK 0
6 *3849:CLK 0.000524583
7 *3839:CLK 0.000574612
8 *3837:CLK 1.55603e-05
9 *3850:CLK 0.000341499
10 *3892:X 0
11 *296:101 0.00118443
12 *296:61 0.00101647
13 *296:59 0.000961154
14 *296:57 0.000497541
15 *296:55 0.00104572
16 *296:36 0.00123436
17 *296:25 0.000604308
18 *296:4 0.000753824
19 *3839:CLK *3605:A 9.90431e-05
20 *3839:CLK *3605:B 0.000229207
21 *3839:CLK *3668:A 9.09669e-05
22 *3847:CLK *317:10 6.69638e-05
23 *3847:CLK *317:12 5.63882e-05
24 *3850:CLK *3606:A 5.49489e-05
25 *3850:CLK *3680:A 0.000243211
26 *296:55 *316:33 0
27 *296:59 *317:10 1.21258e-05
28 *296:61 *317:10 3.69047e-06
29 *3607:A *296:25 0
30 *3607:A *296:36 0
31 *3612:B *3849:CLK 0
32 *3614:B *3849:CLK 0
33 *3618:A_N *3840:CLK 3.1367e-05
34 *3618:A_N *296:55 4.15914e-05
35 *3618:B *3840:CLK 0.00027068
36 *3618:B *296:55 0
37 *3618:B *296:59 9.90367e-05
38 *3619:A *296:59 0.000144773
39 *3661:A *3839:CLK 5.33005e-05
40 *3668:B *3839:CLK 1.30765e-05
41 *3669:S *296:25 0
42 *3669:S *296:36 0
43 *3670:A *3839:CLK 0.000141729
44 *3680:B *3850:CLK 0.000127057
45 *3731:A1 *3837:CLK 5.52302e-05
46 *3731:B1 *3839:CLK 0.000581413
47 *3789:A *3839:CLK 0.000183726
48 *3800:A *3840:CLK 0.000139202
49 *3800:A *296:101 0
50 *3835:RESET_B *3850:CLK 9.69119e-06
51 *3839:D *3839:CLK 5.03772e-05
52 *3845:D *296:101 6.75007e-05
53 *3845:RESET_B *3846:CLK 0
54 *3845:RESET_B *296:101 0
55 *3847:D *296:55 0
56 *3847:D *296:59 1.80136e-05
57 *3847:RESET_B *296:55 1.00375e-05
58 *3848:D *3849:CLK 0
59 *3848:D *296:61 2.84026e-05
60 *4:169 *3839:CLK 5.33005e-05
61 *5:47 *3846:CLK 0
62 *5:51 *3846:CLK 0
63 *5:53 *3846:CLK 0
64 *174:44 *296:36 2.10446e-05
65 *174:44 *296:55 5.27916e-05
66 *174:48 *296:36 6.67322e-05
67 *176:72 *3850:CLK 1.13883e-05
68 *176:72 *296:25 6.31627e-05
69 *188:12 *3837:CLK 1.92905e-05
70 *224:8 *3839:CLK 2.95641e-05
71 *227:20 *3847:CLK 0
72 *227:24 *3850:CLK 0.000337637
73 *227:43 *3850:CLK 0
74 *227:108 *296:101 0
*RES
1 *3892:X *296:4 9.3 
2 *296:4 *3850:CLK 26.7107 
3 *296:4 *296:25 11.0893 
4 *296:25 *3837:CLK 14.3357 
5 *296:25 *296:36 3.46429 
6 *296:36 *3839:CLK 26.175 
7 *296:36 *296:55 8.69643 
8 *296:55 *296:57 4.5 
9 *296:57 *296:59 6.28571 
10 *296:59 *296:61 7.92857 
11 *296:61 *3849:CLK 27.1929 
12 *296:61 *3848:CLK 9.3 
13 *296:59 *3847:CLK 20.8536 
14 *296:57 *3840:CLK 13.1214 
15 *296:55 *296:101 10.4464 
16 *296:101 *3845:CLK 16.7107 
17 *296:101 *3846:CLK 20.9607 
*END

*D_NET *297 0.0129243
*CONN
*I *3827:CLK I *D sky130_fd_sc_hd__dfrtp_2
*I *3844:CLK I *D sky130_fd_sc_hd__dfrtp_2
*I *3843:CLK I *D sky130_fd_sc_hd__dfrtp_2
*I *3842:CLK I *D sky130_fd_sc_hd__dfrtp_2
*I *3841:CLK I *D sky130_fd_sc_hd__dfrtp_2
*I *3826:CLK I *D sky130_fd_sc_hd__dfrtp_2
*I *3828:CLK I *D sky130_fd_sc_hd__dfrtp_2
*I *3814:CLK I *D sky130_fd_sc_hd__dfstp_2
*I *3893:X O *D sky130_fd_sc_hd__clkbuf_16
*CAP
1 *3827:CLK 0
2 *3844:CLK 0.00121992
3 *3843:CLK 0.000247248
4 *3842:CLK 6.59567e-05
5 *3841:CLK 0.00074977
6 *3826:CLK 0
7 *3828:CLK 0
8 *3814:CLK 0.000220611
9 *3893:X 0.000123448
10 *297:83 0.00180205
11 *297:66 0.000767628
12 *297:51 0.00125993
13 *297:47 0.000555808
14 *297:34 0.000645775
15 *297:25 0.000490663
16 *297:6 0.000601385
17 *3814:CLK *3620:C_N 0.00022287
18 *3814:CLK *338:14 0
19 *3841:CLK *310:12 0.000126649
20 *3842:CLK *311:10 2.84026e-05
21 *3843:CLK *312:10 3.69047e-06
22 *3844:CLK *313:12 0.000117666
23 *297:25 *320:28 3.35693e-05
24 *297:25 *320:32 0.000124869
25 *297:34 *320:28 0.000202365
26 *297:47 *320:10 0.000119618
27 *297:47 *320:22 0.000153047
28 *297:66 *310:56 0
29 *297:66 *310:71 0
30 *297:66 *311:16 0
31 *297:66 *311:31 0.00012401
32 *297:66 *311:70 0
33 *297:83 *312:10 0.000162832
34 *297:83 *312:16 0.000148196
35 pll_bypass *3841:CLK 5.35423e-05
36 pll_bypass *3844:CLK 6.5185e-05
37 pll_bypass *297:66 0.000115931
38 pll_bypass *297:83 4.69289e-05
39 pll_trim[0] *3814:CLK 6.82922e-05
40 *3623:A2 *3814:CLK 0.000103253
41 *3647:A2 *3842:CLK 1.17091e-05
42 *3647:B1 *297:66 0
43 *3648:A0 *297:66 2.34969e-05
44 *3649:A *297:66 0.000199706
45 *3649:A *297:83 8.00806e-05
46 *3654:A *3841:CLK 6.10501e-05
47 *3730:A *297:25 9.13888e-05
48 *3730:C_N *297:25 5.65955e-05
49 *3731:A2 *297:25 5.65955e-05
50 *3735:A2 *297:34 0
51 *3737:A3 *297:34 2.42001e-05
52 *3737:A3 *297:47 0.000158051
53 *3737:B1 *297:34 7.70035e-05
54 *3826:D *297:34 0.000194227
55 *3827:RESET_B *297:47 3.17067e-05
56 *3841:D *3841:CLK 5.41609e-05
57 *3841:RESET_B *3841:CLK 0.000180162
58 *3843:D *3843:CLK 0.000175018
59 *3843:RESET_B *3843:CLK 0.000178501
60 *186:12 *3814:CLK 0.000174805
61 *188:52 *297:6 0.000221628
62 *188:52 *297:25 8.33813e-05
63 *288:66 *3841:CLK 1.97621e-05
64 *288:83 *297:47 0
65 *288:134 *297:34 0
66 *288:134 *297:47 0
*RES
1 *3893:X *297:6 11.4786 
2 *297:6 *3814:CLK 23.5857 
3 *297:6 *297:25 9.875 
4 *297:25 *3828:CLK 13.8 
5 *297:25 *297:34 4.98214 
6 *297:34 *3826:CLK 13.8 
7 *297:34 *297:47 13.3036 
8 *297:47 *297:51 6.67857 
9 *297:51 *3841:CLK 24.8179 
10 *297:51 *297:66 8.01786 
11 *297:66 *3842:CLK 15.1929 
12 *297:66 *297:83 7.33929 
13 *297:83 *3843:CLK 19.675 
14 *297:83 *3844:CLK 29.0321 
15 *297:47 *3827:CLK 9.3 
*END

*D_NET *298 0.000112924
*CONN
*I *3817:CLK I *D sky130_fd_sc_hd__dfrtp_2
*I *3768:Y O *D sky130_fd_sc_hd__inv_2
*CAP
1 *3817:CLK 5.64622e-05
2 *3768:Y 5.64622e-05
*RES
1 *3768:Y *3817:CLK 19.5464 
*END

*D_NET *299 0.00052092
*CONN
*I *3836:CLK I *D sky130_fd_sc_hd__dfrtp_2
*I *3788:Y O *D sky130_fd_sc_hd__inv_2
*CAP
1 *3836:CLK 0.000172372
2 *3788:Y 0.000172372
3 *3688:B1 *3836:CLK 0.000115183
4 *232:16 *3836:CLK 6.09916e-05
*RES
1 *3788:Y *3836:CLK 31.0107 
*END

*D_NET *300 0.000773742
*CONN
*I *3818:CLK I *D sky130_fd_sc_hd__dfstp_2
*I *3769:Y O *D sky130_fd_sc_hd__inv_2
*CAP
1 *3818:CLK 0.000214315
2 *3769:Y 0.000214315
3 *3700:B2 *3818:CLK 2.47724e-05
4 *3769:A *3818:CLK 2.89016e-05
5 *3818:D *3818:CLK 0.000260019
6 *230:32 *3818:CLK 3.14193e-05
*RES
1 *3769:Y *3818:CLK 23.2607 
*END

*D_NET *301 0.0004728
*CONN
*I *3829:CLK I *D sky130_fd_sc_hd__dfrtp_2
*I *3781:Y O *D sky130_fd_sc_hd__inv_2
*CAP
1 *3829:CLK 0.000167437
2 *3781:Y 0.000167437
3 *3699:B1 *3829:CLK 9.83442e-05
4 *234:51 *3829:CLK 1.85361e-05
5 *234:55 *3829:CLK 2.10446e-05
*RES
1 *3781:Y *3829:CLK 30.4929 
*END

*D_NET *302 0.000425572
*CONN
*I *3830:CLK I *D sky130_fd_sc_hd__dfrtp_2
*I *3782:Y O *D sky130_fd_sc_hd__inv_2
*CAP
1 *3830:CLK 0.000165315
2 *3782:Y 0.000165315
3 *3709:A *3830:CLK 0
4 *2:33 *3830:CLK 7.1445e-05
5 *14:58 *3830:CLK 2.34969e-05
*RES
1 *3782:Y *3830:CLK 30.85 
*END

*D_NET *303 0.000172969
*CONN
*I *3831:CLK I *D sky130_fd_sc_hd__dfrtp_2
*I *3783:Y O *D sky130_fd_sc_hd__inv_2
*CAP
1 *3831:CLK 3.64917e-05
2 *3783:Y 3.64917e-05
3 *292:23 *3831:CLK 9.99853e-05
*RES
1 *3783:Y *3831:CLK 19.5464 
*END

*D_NET *304 0.00036371
*CONN
*I *3832:CLK I *D sky130_fd_sc_hd__dfrtp_2
*I *3784:Y O *D sky130_fd_sc_hd__inv_2
*CAP
1 *3832:CLK 0.000163987
2 *3784:Y 0.000163987
3 *3832:D *3832:CLK 3.57366e-05
4 *292:61 *3832:CLK 0
*RES
1 *3784:Y *3832:CLK 30.4393 
*END

*D_NET *305 0.000454802
*CONN
*I *3833:CLK I *D sky130_fd_sc_hd__dfrtp_2
*I *3785:Y O *D sky130_fd_sc_hd__inv_2
*CAP
1 *3833:CLK 0.000127467
2 *3785:Y 0.000127467
3 *3785:A *3833:CLK 0.000100831
4 *3894:I0 *3833:CLK 9.90367e-05
*RES
1 *3785:Y *3833:CLK 30.3143 
*END

*D_NET *306 0.000120367
*CONN
*I *3834:CLK I *D sky130_fd_sc_hd__dfrtp_2
*I *3786:Y O *D sky130_fd_sc_hd__inv_2
*CAP
1 *3834:CLK 6.01834e-05
2 *3786:Y 6.01834e-05
*RES
1 *3786:Y *3834:CLK 19.5464 
*END

*D_NET *307 0.000526592
*CONN
*I *3835:CLK I *D sky130_fd_sc_hd__dfrtp_2
*I *3787:Y O *D sky130_fd_sc_hd__inv_2
*CAP
1 *3835:CLK 0.000161779
2 *3787:Y 0.000161779
3 *3787:A *3835:CLK 0.000152922
4 *176:10 *3835:CLK 5.01117e-05
*RES
1 *3787:Y *3835:CLK 30.6179 
*END

*D_NET *308 0.0094704
*CONN
*I *3656:A I *D sky130_fd_sc_hd__inv_2
*I *3644:C I *D sky130_fd_sc_hd__and3_2
*I *3626:D I *D sky130_fd_sc_hd__and4_2
*I *3658:A1 I *D sky130_fd_sc_hd__a21o_2
*I *3650:A2 I *D sky130_fd_sc_hd__a21o_2
*I *3573:A1 I *D sky130_fd_sc_hd__mux2_2
*I *3571:A0 I *D sky130_fd_sc_hd__mux2_2
*I *3660:A1 I *D sky130_fd_sc_hd__mux2_2
*I *3839:Q O *D sky130_fd_sc_hd__dfrtp_2
*CAP
1 *3656:A 9.10658e-05
2 *3644:C 0.000440207
3 *3626:D 0.000356874
4 *3658:A1 0.000120674
5 *3650:A2 7.41024e-05
6 *3573:A1 3.92213e-05
7 *3571:A0 0.000264895
8 *3660:A1 0.000102
9 *3839:Q 0.000235127
10 *308:64 0.000477549
11 *308:62 0.000547286
12 *308:51 0.000324858
13 *308:47 0.000473034
14 *308:25 0.000582651
15 *308:12 0.000589023
16 *308:8 0.000681906
17 *3571:A0 *3569:A1 0.000100639
18 *3571:A0 *341:39 0.000217677
19 *3626:D *3626:C 0.000391119
20 *3650:A2 *309:62 0.000181583
21 *308:25 *3569:A1 6.69638e-05
22 *308:25 *309:18 0
23 *308:25 *310:25 0
24 *308:51 *3655:A1 0
25 *308:62 *3655:A1 0
26 *3570:B *3571:A0 0.000103253
27 *3645:B *3626:D 0.0002088
28 *3646:A *3644:C 0.000140933
29 *3651:A *3626:D 0.000193529
30 *3651:B *3626:D 8.23082e-05
31 *3652:A2 *3626:D 3.046e-05
32 *3652:B2 *3626:D 5.52238e-05
33 *3658:B1 *3626:D 4.08637e-05
34 *3658:B1 *3658:A1 0.000142152
35 *3658:B1 *308:51 0.000123288
36 *3658:B1 *308:62 0.000250915
37 *3659:A0 *308:47 7.63045e-05
38 *3659:A0 *308:51 4.58764e-05
39 *3728:A *308:25 0.000216815
40 *3731:A1 *3660:A1 5.45307e-05
41 *3731:B1 *308:8 9.31595e-05
42 *3792:A *3660:A1 0
43 *3792:A *308:12 0.000197984
44 *3792:A *308:47 8.31405e-05
45 *3839:RESET_B *308:12 3.5848e-05
46 *3839:RESET_B *308:47 1.85103e-05
47 *3840:D *308:62 0.000128161
48 *3840:RESET_B *3644:C 0
49 *4:111 *3571:A0 9.77414e-05
50 *4:169 *308:12 0
51 *4:169 *308:25 0
52 *144:47 *3644:C 0
53 *148:12 *3571:A0 0.00011914
54 *148:12 *308:25 2.16719e-05
55 *150:8 *3571:A0 0.000103267
56 *153:10 *3571:A0 0
57 *174:26 *308:8 0.000143364
58 *188:29 *3573:A1 5.52302e-05
59 *190:14 *308:8 9.90431e-05
60 *190:25 *308:51 0
61 *190:29 *3656:A 1.59373e-05
62 *216:6 *3656:A 9.83442e-05
63 *288:66 *3656:A 6.05161e-06
64 *288:66 *308:47 3.0102e-05
65 *290:8 *3571:A0 0
*RES
1 *3839:Q *308:8 18.8536 
2 *308:8 *308:12 4.10714 
3 *308:12 *3660:A1 15.2821 
4 *308:12 *308:25 4.98214 
5 *308:25 *3571:A0 20.9429 
6 *308:25 *3573:A1 14.3357 
7 *308:8 *308:47 4.83036 
8 *308:47 *308:51 2.9375 
9 *308:51 *3650:A2 15.5679 
10 *308:51 *308:62 3.46429 
11 *308:62 *308:64 4.5 
12 *308:64 *3658:A1 11.4786 
13 *308:64 *3626:D 18.925 
14 *308:62 *3644:C 20.6214 
15 *308:47 *3656:A 15.8625 
*END

*D_NET *309 0.00823957
*CONN
*I *3644:B I *D sky130_fd_sc_hd__and3_2
*I *3652:A1 I *D sky130_fd_sc_hd__a22o_2
*I *3626:C I *D sky130_fd_sc_hd__and4_2
*I *3650:A1 I *D sky130_fd_sc_hd__a21o_2
*I *3655:A1 I *D sky130_fd_sc_hd__a21oi_2
*I *3657:C1 I *D sky130_fd_sc_hd__o211a_2
*I *3573:A0 I *D sky130_fd_sc_hd__mux2_2
*I *3569:A1 I *D sky130_fd_sc_hd__mux2_2
*I *3840:Q O *D sky130_fd_sc_hd__dfrtp_2
*CAP
1 *3644:B 9.96696e-05
2 *3652:A1 0
3 *3626:C 0.000224847
4 *3650:A1 0
5 *3655:A1 0.000218666
6 *3657:C1 6.09656e-05
7 *3573:A0 1.84647e-05
8 *3569:A1 0.00010754
9 *3840:Q 0
10 *309:88 0.00011929
11 *309:75 0.000450607
12 *309:62 0.000405506
13 *309:18 0.000593301
14 *309:10 0.000634747
15 *309:8 0.000543667
16 *309:4 0.000417883
17 *3626:C *311:35 2.03771e-05
18 *309:18 *337:43 0.000383697
19 *309:75 *310:21 0.000227539
20 *3571:A0 *3569:A1 0.000100639
21 *3626:D *3626:C 0.000391119
22 *3633:B *3657:C1 0
23 *3645:B *3626:C 1.34548e-05
24 *3650:A2 *309:62 0.000181583
25 *3652:B1 *309:75 0.00010326
26 *3652:B1 *309:88 4.73656e-05
27 *3655:A2 *3655:A1 9.81603e-05
28 *3657:B1 *3657:C1 9.90431e-05
29 *3658:A2 *3655:A1 5.15855e-05
30 *3659:A0 *309:10 0
31 *3659:A0 *309:18 0
32 *3660:A0 *309:18 4.40898e-05
33 *3661:A *309:18 0.000148189
34 *3675:A *309:18 3.99614e-06
35 *3728:A *3573:A0 4.08637e-05
36 *3728:A *309:18 0.000270077
37 *3730:A *3573:A0 2.59355e-05
38 *3730:A *309:18 0.000115811
39 *3789:A *309:18 3.14626e-05
40 *3840:D *3655:A1 0
41 *3840:D *309:8 0.000117914
42 *3840:D *309:62 5.30637e-06
43 *3840:RESET_B *3655:A1 0.000271958
44 *4:130 *309:18 2.90164e-05
45 *4:169 *309:18 0.000316538
46 *144:34 *309:75 1.37292e-05
47 *144:47 *3644:B 1.87004e-05
48 *144:58 *3644:B 3.20153e-05
49 *153:10 *3569:A1 0
50 *153:10 *309:18 6.07614e-05
51 *174:26 *3657:C1 1.58163e-05
52 *174:26 *309:18 0.000265378
53 *183:52 *3644:B 5.80706e-06
54 *183:52 *309:75 7.60306e-05
55 *183:52 *309:88 2.84494e-05
56 *183:63 *3644:B 0.000124723
57 *190:123 *309:75 0.000269428
58 *206:10 *3644:B 5.33978e-05
59 *267:30 *309:18 3.34295e-05
60 *288:16 *3655:A1 8.2958e-06
61 *288:16 *309:10 7.15591e-05
62 *288:16 *309:18 6.09572e-05
63 *308:25 *3569:A1 6.69638e-05
64 *308:25 *309:18 0
65 *308:51 *3655:A1 0
66 *308:62 *3655:A1 0
*RES
1 *3840:Q *309:4 9.3 
2 *309:4 *309:8 7.5 
3 *309:8 *309:10 1.94643 
4 *309:10 *309:18 19.1786 
5 *309:18 *3569:A1 20.55 
6 *309:18 *3573:A0 9.83571 
7 *309:10 *3657:C1 15.175 
8 *309:8 *3655:A1 18.9429 
9 *309:4 *309:62 2.58929 
10 *309:62 *3650:A1 9.3 
11 *309:62 *309:75 10.4821 
12 *309:75 *3626:C 18.3536 
13 *309:75 *309:88 0.732143 
14 *309:88 *3652:A1 13.8 
15 *309:88 *3644:B 16.9607 
*END

*D_NET *310 0.00843708
*CONN
*I *3647:A1 I *D sky130_fd_sc_hd__a22o_2
*I *3644:A I *D sky130_fd_sc_hd__and3_2
*I *3626:B I *D sky130_fd_sc_hd__and4_2
*I *3650:B1 I *D sky130_fd_sc_hd__a21o_2
*I *3568:A1 I *D sky130_fd_sc_hd__mux2_2
*I *3569:A0 I *D sky130_fd_sc_hd__mux2_2
*I *3653:A1 I *D sky130_fd_sc_hd__mux2_2
*I *3841:Q O *D sky130_fd_sc_hd__dfrtp_2
*CAP
1 *3647:A1 0.000129548
2 *3644:A 0.000172785
3 *3626:B 0
4 *3650:B1 0
5 *3568:A1 2.19697e-05
6 *3569:A0 0.00025572
7 *3653:A1 0
8 *3841:Q 0.000223834
9 *310:71 0.000391069
10 *310:56 0.000274815
11 *310:25 0.000785253
12 *310:21 0.000664367
13 *310:19 0.000365167
14 *310:12 0.000246118
15 *3568:A1 *3568:A0 7.43578e-06
16 *3569:A0 *3569:S 0.000352414
17 *3569:A0 *339:17 9.69119e-06
18 *3569:A0 *339:30 3.4323e-05
19 *3647:A1 *311:16 0.000172091
20 *3647:A1 *311:70 7.3099e-05
21 *310:25 *337:23 0
22 *310:25 *339:30 1.19402e-05
23 *310:56 *3568:A0 0.000177948
24 *3570:B *3569:A0 5.92844e-05
25 *3646:A *3644:A 9.83442e-05
26 *3647:B1 *3647:A1 0.000250201
27 *3647:B1 *310:71 0.00010326
28 *3647:B2 *3644:A 1.03037e-05
29 *3648:S *3644:A 5.33005e-05
30 *3648:S *3647:A1 9.41642e-05
31 *3648:S *310:56 0.000323888
32 *3648:S *310:71 0.000142739
33 *3653:A0 *310:21 5.65955e-05
34 *3654:A *310:21 9.28788e-05
35 *3654:A *310:25 8.00806e-05
36 *3731:B1 *310:25 1.0033e-05
37 *3841:CLK *310:12 0.000126649
38 *3841:RESET_B *310:12 7.45939e-05
39 *3892:A *310:25 1.94945e-05
40 *144:8 *3568:A1 3.14193e-05
41 *144:34 *310:25 0.000458476
42 *183:52 *310:12 6.48863e-05
43 *183:52 *310:56 0
44 *188:29 *3568:A1 9.90431e-05
45 *190:25 *310:25 0.000612546
46 *190:123 *310:21 8.4719e-05
47 *190:123 *310:25 0.000125736
48 *190:123 *310:56 2.36643e-05
49 *192:25 *3644:A 4.48647e-05
50 *286:14 *3569:A0 6.96796e-05
51 *288:66 *310:12 0.000262476
52 *290:34 *3569:A0 0.000141863
53 *290:34 *310:25 0.000224772
54 *297:66 *310:56 0
55 *297:66 *310:71 0
56 *308:25 *310:25 0
57 *309:75 *310:21 0.000227539
*RES
1 *3841:Q *310:12 25.1929 
2 *310:12 *3653:A1 9.3 
3 *310:12 *310:19 0.428571 
4 *310:19 *310:21 4.23214 
5 *310:21 *310:25 19.5 
6 *310:25 *3569:A0 20.3893 
7 *310:25 *3568:A1 14.7464 
8 *310:21 *3650:B1 9.3 
9 *310:19 *310:56 9.53571 
10 *310:56 *3626:B 13.8 
11 *310:56 *310:71 7.10714 
12 *310:71 *3644:A 12.3 
13 *310:71 *3647:A1 22.4071 
*END

*D_NET *311 0.00989452
*CONN
*I *3642:A1 I *D sky130_fd_sc_hd__a22o_2
*I *3566:A1 I *D sky130_fd_sc_hd__a211o_2
*I *3645:A I *D sky130_fd_sc_hd__or2_2
*I *3626:A I *D sky130_fd_sc_hd__and4_2
*I *3568:A0 I *D sky130_fd_sc_hd__mux2_2
*I *3648:A1 I *D sky130_fd_sc_hd__mux2_2
*I *3842:Q O *D sky130_fd_sc_hd__dfrtp_2
*CAP
1 *3642:A1 0.000134727
2 *3566:A1 0.00052258
3 *3645:A 0
4 *3626:A 0
5 *3568:A0 0.00111907
6 *3648:A1 0
7 *3842:Q 0.000576869
8 *311:70 0.000944578
9 *311:35 0.00119805
10 *311:31 0.00035817
11 *311:16 0.000463977
12 *311:10 0.00104893
13 *3566:A1 *3566:B1 7.86416e-05
14 *3566:A1 *3566:C1 6.17358e-05
15 *3566:A1 *312:16 7.00641e-05
16 *3566:A1 *312:25 0.000313656
17 *3568:A0 *3564:A 0.000184745
18 pll_bypass *311:31 6.5185e-05
19 *3566:A2 *3566:A1 6.09963e-05
20 *3568:A1 *3568:A0 7.43578e-06
21 *3623:A3 *3568:A0 0.000142082
22 *3624:B *3568:A0 0.000123295
23 *3626:C *311:35 2.03771e-05
24 *3635:A *3566:A1 2.88018e-06
25 *3642:B1 *3642:A1 5.71472e-05
26 *3642:B2 *3642:A1 0.000167603
27 *3642:B2 *311:70 1.00332e-05
28 *3643:B1 *3642:A1 9.90367e-05
29 *3643:B2 *3642:A1 2.78509e-05
30 *3645:B *3568:A0 1.34631e-05
31 *3645:B *311:35 5.65955e-05
32 *3647:A1 *311:16 0.000172091
33 *3647:A1 *311:70 7.3099e-05
34 *3647:A2 *311:10 3.87112e-05
35 *3647:B1 *311:16 1.3142e-05
36 *3647:B1 *311:31 5.20669e-05
37 *3647:B1 *311:35 4.73286e-05
38 *3648:A0 *311:16 3.84349e-05
39 *3648:A0 *311:70 5.37741e-06
40 *3648:S *311:16 2.78576e-05
41 *3649:A *311:31 9.33978e-07
42 *3730:A *3568:A0 0.000136519
43 *3738:A *3568:A0 0
44 *3762:A1 *3568:A0 0
45 *3795:A *311:10 0.000141734
46 *3842:CLK *311:10 2.84026e-05
47 *3842:RESET_B *311:10 0.000177854
48 *3886:A *3568:A0 8.23597e-06
49 *144:8 *3568:A0 0.000313857
50 *174:112 *3568:A0 0
51 *183:52 *3568:A0 0
52 *188:29 *3568:A0 1.02821e-05
53 *188:44 *3568:A0 0.000181728
54 *188:48 *3568:A0 0.000195146
55 *297:66 *311:16 0
56 *297:66 *311:31 0.00012401
57 *297:66 *311:70 0
58 *310:56 *3568:A0 0.000177948
*RES
1 *3842:Q *311:10 24.1036 
2 *311:10 *311:16 8 
3 *311:16 *3648:A1 9.3 
4 *311:16 *311:31 13.7679 
5 *311:31 *311:35 2.08929 
6 *311:35 *3568:A0 41.4786 
7 *311:35 *3626:A 9.3 
8 *311:31 *3645:A 9.3 
9 *311:10 *311:70 4.42857 
10 *311:70 *3566:A1 21.675 
11 *311:70 *3642:A1 16.9964 
*END

*D_NET *312 0.00370648
*CONN
*I *3643:A1 I *D sky130_fd_sc_hd__a22o_2
*I *3639:A1 I *D sky130_fd_sc_hd__mux2_2
*I *3566:C1 I *D sky130_fd_sc_hd__a211o_2
*I *3627:A I *D sky130_fd_sc_hd__and2_2
*I *3843:Q O *D sky130_fd_sc_hd__dfrtp_2
*CAP
1 *3643:A1 6.56062e-05
2 *3639:A1 6.65392e-05
3 *3566:C1 5.89276e-05
4 *3627:A 0
5 *3843:Q 0.000281735
6 *312:25 0.000224407
7 *312:16 0.000307139
8 *312:10 0.00055554
9 *3566:C1 *3566:B1 6.21768e-05
10 pll_bypass *312:10 8.5896e-05
11 pll_bypass *312:16 7.50697e-05
12 *3566:A1 *3566:C1 6.17358e-05
13 *3566:A1 *312:16 7.00641e-05
14 *3566:A1 *312:25 0.000313656
15 *3627:B *3566:C1 1.3701e-05
16 *3627:B *312:25 7.57394e-05
17 *3635:A *3566:C1 3.74636e-05
18 *3635:A *312:16 0.000100685
19 *3635:A *312:25 3.69501e-05
20 *3635:B *312:16 4.3825e-05
21 *3635:B *312:25 9.76435e-06
22 *3636:A *3643:A1 4.82865e-05
23 *3636:B *312:16 0.000212777
24 *3638:B *3639:A1 0.000195555
25 *3642:B1 *3639:A1 1.31516e-05
26 *3642:B2 *312:16 5.65955e-05
27 *3643:A2 *3643:A1 3.59697e-05
28 *3643:B1 *3643:A1 3.50166e-05
29 *3649:A *312:16 5.49544e-05
30 *3843:CLK *312:10 3.69047e-06
31 *183:80 *3639:A1 0.000171368
32 *201:16 *3643:A1 2.14686e-05
33 *297:83 *312:10 0.000162832
34 *297:83 *312:16 0.000148196
*RES
1 *3843:Q *312:10 18.2286 
2 *312:10 *312:16 10.6786 
3 *312:16 *3627:A 9.3 
4 *312:16 *312:25 3.42857 
5 *312:25 *3566:C1 11.1036 
6 *312:25 *3639:A1 20.8536 
7 *312:10 *3643:A1 15.6036 
*END

*D_NET *313 0.00258713
*CONN
*I *3637:A I *D sky130_fd_sc_hd__nand2_2
*I *3640:A1 I *D sky130_fd_sc_hd__o22a_2
*I *3566:B1 I *D sky130_fd_sc_hd__a211o_2
*I *3628:A I *D sky130_fd_sc_hd__nand2_2
*I *3844:Q O *D sky130_fd_sc_hd__dfrtp_2
*CAP
1 *3637:A 0
2 *3640:A1 0
3 *3566:B1 2.94571e-05
4 *3628:A 0.000147448
5 *3844:Q 0.000227901
6 *313:18 0.000355212
7 *313:14 0.00021
8 *313:12 0.000259594
9 *3566:A1 *3566:B1 7.86416e-05
10 *3566:C1 *3566:B1 6.21768e-05
11 *3629:S *313:12 0
12 *3629:S *313:18 4.94455e-05
13 *3635:A *3566:B1 1.55885e-05
14 *3638:B *3628:A 0.00027325
15 *3638:B *313:18 0.000307871
16 *3640:A2 *313:14 6.1079e-05
17 *3797:A *313:14 5.03772e-05
18 *3844:CLK *313:12 0.000117666
19 *3844:RESET_B *313:12 0.000125724
20 *144:58 *3628:A 4.46186e-06
21 *144:103 *3628:A 6.19181e-05
22 *194:10 *3628:A 8.71141e-05
23 *194:10 *313:18 6.22052e-05
*RES
1 *3844:Q *313:12 23.0321 
2 *313:12 *313:14 0.946429 
3 *313:14 *313:18 8.875 
4 *313:18 *3628:A 17.6036 
5 *313:18 *3566:B1 15.1929 
6 *313:14 *3640:A1 9.3 
7 *313:12 *3637:A 9.3 
*END

*D_NET *314 0.00346571
*CONN
*I *3567:A I *D sky130_fd_sc_hd__nor3_2
*I *3631:A1 I *D sky130_fd_sc_hd__o221a_2
*I *3625:B I *D sky130_fd_sc_hd__nand2_2
*I *3634:A I *D sky130_fd_sc_hd__nand2_2
*I *3845:Q O *D sky130_fd_sc_hd__dfrtp_2
*CAP
1 *3567:A 0
2 *3631:A1 0.000286061
3 *3625:B 0.000246671
4 *3634:A 0.000339804
5 *3845:Q 0.000103974
6 *314:27 0.000648258
7 *314:10 0.000455329
8 *314:8 0.000103974
9 *3625:B *3625:A 2.36643e-05
10 *3631:A1 *3625:A 0
11 *314:27 *315:14 0.000103253
12 *3565:A_N *3634:A 0.000125724
13 *3565:A_N *314:27 0.000187733
14 *3567:B *314:8 1.97695e-05
15 *3567:B *314:27 4.66203e-05
16 *3616:A *3634:A 4.58194e-05
17 *3629:A0 *3625:B 0.000183445
18 *3629:A0 *3631:A1 0.000125547
19 *3631:A2 *3631:A1 7.75567e-05
20 *3631:B1 *3631:A1 5.982e-05
21 *3638:B *3634:A 5.86153e-05
22 *144:62 *3634:A 2.89114e-05
23 *147:14 *314:8 4.00679e-05
24 *190:44 *314:27 3.25078e-05
25 *227:108 *3625:B 0
26 *288:8 *3625:B 2.37349e-05
27 *288:14 *3634:A 6.42242e-05
28 *288:14 *314:27 3.46272e-05
*RES
1 *3845:Q *314:8 11.0857 
2 *314:8 *314:10 4.5 
3 *314:10 *3634:A 19.175 
4 *314:10 *314:27 7.96429 
5 *314:27 *3625:B 13.1571 
6 *314:27 *3631:A1 13.4429 
7 *314:8 *3567:A 9.3 
*END

*D_NET *315 0.00222715
*CONN
*I *3629:A1 I *D sky130_fd_sc_hd__mux2_2
*I *3632:A1 I *D sky130_fd_sc_hd__a21o_2
*I *3625:A I *D sky130_fd_sc_hd__nand2_2
*I *3565:B I *D sky130_fd_sc_hd__and2b_2
*I *3846:Q O *D sky130_fd_sc_hd__dfrtp_2
*CAP
1 *3629:A1 0
2 *3632:A1 0.000178404
3 *3625:A 9.73065e-05
4 *3565:B 0
5 *3846:Q 0.000190882
6 *315:32 0.000214577
7 *315:14 0.000307075
8 *315:10 0.000436824
9 *3565:A_N *3625:A 9.60875e-05
10 *3567:B *315:14 1.02504e-05
11 *3625:B *3625:A 2.36643e-05
12 *3629:A0 *3625:A 0.000224308
13 *3629:A0 *315:14 5.88923e-05
14 *3629:S *3632:A1 5.39166e-06
15 *3629:S *315:32 1.04232e-05
16 *3631:A1 *3625:A 0
17 *3631:A2 *3625:A 3.57366e-05
18 *3632:B1 *315:10 9.90431e-05
19 *3632:B1 *315:14 0
20 *3797:A *3632:A1 1.21371e-05
21 *3797:A *315:14 2.59387e-05
22 *3797:A *315:32 3.08382e-06
23 *190:44 *315:14 2.74784e-05
24 *190:59 *315:14 6.27272e-06
25 *288:8 *3625:A 6.01248e-05
26 *314:27 *315:14 0.000103253
*RES
1 *3846:Q *315:10 16.3893 
2 *315:10 *315:14 7.66071 
3 *315:14 *3565:B 9.3 
4 *315:14 *3625:A 12.6214 
5 *315:10 *315:32 5.23214 
6 *315:32 *3632:A1 11.4964 
7 *315:32 *3629:A1 9.3 
*END

*D_NET *316 0.00297836
*CONN
*I *3610:B1 I *D sky130_fd_sc_hd__o31a_2
*I *3617:A I *D sky130_fd_sc_hd__or4_2
*I *3668:A I *D sky130_fd_sc_hd__nand2_2
*I *3605:B I *D sky130_fd_sc_hd__or2_2
*I *3621:C I *D sky130_fd_sc_hd__and3_2
*I *3847:Q O *D sky130_fd_sc_hd__dfrtp_2
*CAP
1 *3610:B1 2.9073e-05
2 *3617:A 0
3 *3668:A 1.43146e-05
4 *3605:B 5.81891e-05
5 *3621:C 0.000445496
6 *3847:Q 0.000106828
7 *316:33 0.000174025
8 *316:20 0.000593213
9 *316:16 0.000158896
10 *316:6 0.0002486
11 *3610:B1 *3610:A2 2.94744e-05
12 *3621:C *3621:B 3.466e-06
13 *316:16 *337:43 0
14 *316:20 *337:43 0
15 *3618:B *3621:C 5.49489e-05
16 *3618:B *316:16 0.000101545
17 *3618:B *316:20 4.08637e-05
18 *3618:B *316:33 3.12359e-05
19 *3622:A *3621:C 9.78579e-05
20 *3668:B *3605:B 5.56861e-05
21 *3668:B *3668:A 9.86826e-06
22 *3731:B1 *3668:A 1.69175e-05
23 *3839:CLK *3605:B 0.000229207
24 *3839:CLK *3668:A 9.09669e-05
25 *5:47 *316:16 0.000101545
26 *5:47 *316:33 2.31833e-05
27 *174:44 *3610:B1 6.10501e-05
28 *174:44 *316:6 0.000105983
29 *224:8 *3605:B 9.59253e-05
30 *296:55 *316:33 0
*RES
1 *3847:Q *316:6 10.6571 
2 *316:6 *316:16 11.6071 
3 *316:16 *316:20 0.964286 
4 *316:20 *3621:C 16.4071 
5 *316:20 *316:33 10.6429 
6 *316:33 *3605:B 11.9071 
7 *316:33 *3668:A 10.2643 
8 *316:16 *3617:A 9.3 
9 *316:6 *3610:B1 10.3357 
*END

*D_NET *317 0.00369967
*CONN
*I *3611:A I *D sky130_fd_sc_hd__nand2_2
*I *3621:B I *D sky130_fd_sc_hd__and3_2
*I *3613:A I *D sky130_fd_sc_hd__or2_2
*I *3605:A I *D sky130_fd_sc_hd__or2_2
*I *3667:B I *D sky130_fd_sc_hd__nor3_2
*I *3848:Q O *D sky130_fd_sc_hd__dfrtp_2
*CAP
1 *3611:A 0.000231246
2 *3621:B 8.77205e-05
3 *3613:A 0.000320924
4 *3605:A 0.000116154
5 *3667:B 2.05965e-05
6 *3848:Q 9.89899e-05
7 *317:36 0.000408644
8 *317:20 0.000528958
9 *317:12 0.000562502
10 *317:10 0.00050053
11 *3613:A *3621:A 2.59355e-05
12 *317:20 *3621:A 0.000101227
13 *317:20 *3667:A 5.45307e-05
14 *3613:B *3611:A 5.49544e-05
15 *3613:B *317:12 0
16 *3613:B *317:20 0
17 *3621:C *3621:B 3.466e-06
18 *3839:CLK *3605:A 9.90431e-05
19 *3847:CLK *317:10 6.69638e-05
20 *3847:CLK *317:12 5.63882e-05
21 *175:16 *3605:A 3.1521e-05
22 *175:16 *317:20 1.48509e-05
23 *179:35 *3611:A 0.000218518
24 *224:8 *3605:A 7.61932e-05
25 *224:8 *3667:B 3.99614e-06
26 *227:20 *317:20 0
27 *296:59 *317:10 1.21258e-05
28 *296:61 *317:10 3.69047e-06
*RES
1 *3848:Q *317:10 15.3714 
2 *317:10 *317:12 2.55357 
3 *317:12 *317:20 10.0714 
4 *317:20 *3667:B 9.72857 
5 *317:20 *3605:A 11.8893 
6 *317:12 *317:36 4.5 
7 *317:36 *3613:A 14.6929 
8 *317:36 *3621:B 10.2464 
9 *317:10 *3611:A 18.0679 
*END

*D_NET *318 0.0031746
*CONN
*I *3667:A I *D sky130_fd_sc_hd__nor3_2
*I *3621:A I *D sky130_fd_sc_hd__and3_2
*I *3726:A1 I *D sky130_fd_sc_hd__a21o_2
*I *3680:A I *D sky130_fd_sc_hd__nor2_2
*I *3606:A I *D sky130_fd_sc_hd__or2_2
*I *3612:A I *D sky130_fd_sc_hd__xnor2_2
*I *3849:Q O *D sky130_fd_sc_hd__dfrtp_2
*CAP
1 *3667:A 5.64371e-05
2 *3621:A 0.000141863
3 *3726:A1 0
4 *3680:A 0.000248257
5 *3606:A 4.27338e-05
6 *3612:A 0.000344156
7 *3849:Q 0
8 *318:29 0.000392242
9 *318:14 0.000496438
10 *318:12 0.000176136
11 *318:8 0.000301209
12 *318:4 9.06782e-05
13 *3613:A *3621:A 2.59355e-05
14 *3680:B *3606:A 5.65955e-05
15 *3680:B *3680:A 2.2549e-05
16 *3802:A *3612:A 5.52238e-05
17 *3849:RESET_B *3621:A 0
18 *3849:RESET_B *318:12 0
19 *3850:CLK *3606:A 5.49489e-05
20 *3850:CLK *3680:A 0.000243211
21 *175:16 *3667:A 3.69047e-06
22 *175:16 *318:12 4.69852e-05
23 *175:16 *318:14 5.49544e-05
24 *175:22 *3606:A 5.33614e-05
25 *175:22 *318:29 9.97164e-05
26 *227:20 *3621:A 0
27 *227:20 *318:12 0
28 *227:24 *3606:A 0
29 *227:24 *318:29 0
30 *234:12 *3680:A 1.15172e-05
31 *317:20 *3621:A 0.000101227
32 *317:20 *3667:A 5.45307e-05
*RES
1 *3849:Q *318:4 9.3 
2 *318:4 *318:8 5.03571 
3 *318:8 *318:12 7.05357 
4 *318:12 *318:14 0.946429 
5 *318:14 *3612:A 14.8 
6 *318:14 *318:29 6.14286 
7 *318:29 *3606:A 15.0679 
8 *318:29 *3680:A 17.5321 
9 *318:12 *3726:A1 9.3 
10 *318:8 *3621:A 16.5857 
11 *318:4 *3667:A 10.675 
*END

*D_NET *319 0.00395625
*CONN
*I *3739:A1 I *D sky130_fd_sc_hd__a22o_2
*I *3737:A1 I *D sky130_fd_sc_hd__o32a_2
*I *3732:A1 I *D sky130_fd_sc_hd__a21oi_2
*I *3620:C_N I *D sky130_fd_sc_hd__or3b_2
*I *3826:Q O *D sky130_fd_sc_hd__dfrtp_2
*CAP
1 *3739:A1 0
2 *3737:A1 9.89012e-05
3 *3732:A1 2.04426e-05
4 *3620:C_N 0.000321894
5 *3826:Q 0.000488456
6 *319:41 0.000166359
7 *319:28 0.000626988
8 *319:16 0.000746536
9 *3620:C_N *320:28 0
10 *3620:C_N *338:14 3.08664e-05
11 *3737:A1 *3736:B 2.82057e-05
12 *3737:A1 *320:22 6.8045e-05
13 *3737:A1 *320:28 0
14 *319:41 *320:28 0
15 pll_trim[0] *3620:C_N 2.02934e-05
16 *3623:A2 *3620:C_N 4.66203e-05
17 *3731:A2 *3620:C_N 4.24214e-05
18 *3732:B1 *3732:A1 2.59355e-05
19 *3732:B1 *319:28 0.000159281
20 *3733:A *319:16 0.000126276
21 *3733:A *319:28 5.33005e-05
22 *3737:A2 *3737:A1 0.000112667
23 *3739:A2 *319:16 2.64112e-05
24 *3739:B2 *3732:A1 5.33005e-05
25 *3739:B2 *319:28 2.15721e-05
26 *3814:CLK *3620:C_N 0.00022287
27 *3826:D *319:16 7.57394e-05
28 *3826:RESET_B *319:16 2.27416e-05
29 *270:25 *3620:C_N 5.37862e-05
30 *270:42 *3620:C_N 1.02504e-05
31 *270:42 *3737:A1 1.04707e-05
32 *270:42 *319:41 6.94694e-05
33 *271:6 *319:28 7.5938e-06
34 *271:23 *319:28 1.18904e-05
35 *288:134 *319:16 0.000186662
*RES
1 *3826:Q *319:16 28.3179 
2 *319:16 *319:28 8.91071 
3 *319:28 *3620:C_N 20.8357 
4 *319:28 *319:41 1.03571 
5 *319:41 *3732:A1 14.3357 
6 *319:41 *3737:A1 16.05 
7 *319:16 *3739:A1 9.3 
*END

*D_NET *320 0.00509211
*CONN
*I *3736:A I *D sky130_fd_sc_hd__nor2_2
*I *3737:B2 I *D sky130_fd_sc_hd__o32a_2
*I *3735:A1 I *D sky130_fd_sc_hd__o22a_2
*I *3620:B I *D sky130_fd_sc_hd__or3b_2
*I *3729:B I *D sky130_fd_sc_hd__nor2_2
*I *3827:Q O *D sky130_fd_sc_hd__dfrtp_2
*CAP
1 *3736:A 0
2 *3737:B2 5.25728e-05
3 *3735:A1 0
4 *3620:B 0
5 *3729:B 0.000235559
6 *3827:Q 0.000418355
7 *320:32 0.000460619
8 *320:28 0.000547412
9 *320:22 0.000891899
10 *320:10 0.000935329
11 *3729:B *3620:A 0.00041204
12 *3729:B *338:14 9.83388e-05
13 *320:22 *3736:B 2.50463e-05
14 *3620:C_N *320:28 0
15 *3731:A2 *320:28 1.08528e-05
16 *3731:A2 *320:32 5.72546e-05
17 *3737:A1 *320:22 6.8045e-05
18 *3737:A1 *320:28 0
19 *3737:A2 *3737:B2 1.17091e-05
20 *3737:A2 *320:22 2.51343e-06
21 *3737:A3 *320:22 7.70371e-05
22 *3737:B1 *3737:B2 7.919e-05
23 *3737:B1 *320:28 6.48204e-05
24 *3826:D *320:22 9.33978e-07
25 *3827:D *320:22 9.11048e-06
26 *288:134 *320:10 0
27 *288:134 *320:22 0
28 *297:25 *320:28 3.35693e-05
29 *297:25 *320:32 0.000124869
30 *297:34 *320:28 0.000202365
31 *297:47 *320:10 0.000119618
32 *297:47 *320:22 0.000153047
33 *319:41 *320:28 0
*RES
1 *3827:Q *320:10 19.2643 
2 *320:10 *320:22 16.6875 
3 *320:22 *320:28 4.88393 
4 *320:28 *320:32 8.57143 
5 *320:32 *3729:B 15.1036 
6 *320:32 *3620:B 9.3 
7 *320:28 *3735:A1 13.8 
8 *320:22 *3737:B2 15.3446 
9 *320:10 *3736:A 13.8 
*END

*D_NET *321 0.00346381
*CONN
*I *3735:B2 I *D sky130_fd_sc_hd__o22a_2
*I *3620:A I *D sky130_fd_sc_hd__or3b_2
*I *3729:A I *D sky130_fd_sc_hd__nor2_2
*I *3828:Q O *D sky130_fd_sc_hd__dfrtp_2
*CAP
1 *3735:B2 0.00046946
2 *3620:A 0.000235568
3 *3729:A 0
4 *3828:Q 7.1193e-05
5 *321:16 0.000649244
6 *321:6 0.000954329
7 *3729:B *3620:A 0.00041204
8 *3730:B *321:16 0
9 *3731:A2 *3735:B2 5.28424e-05
10 *3735:A2 *3735:B2 0.000305025
11 *3780:A *321:16 0.000125731
12 *3828:D *3735:B2 0.000188372
*RES
1 *3828:Q *321:6 10.2464 
2 *321:6 *321:16 16.0893 
3 *321:16 *3729:A 9.3 
4 *321:16 *3620:A 14.7821 
5 *321:6 *3735:B2 20.4964 
*END

*D_NET *322 0.00193736
*CONN
*I *3725:B1 I *D sky130_fd_sc_hd__a2bb2o_2
*I *3712:A1 I *D sky130_fd_sc_hd__o21a_2
*I *3829:Q O *D sky130_fd_sc_hd__dfrtp_2
*CAP
1 *3725:B1 5.91477e-05
2 *3712:A1 0.000441989
3 *3829:Q 0.000162499
4 *322:6 0.000663636
5 *3702:A *3712:A1 7.57312e-05
6 *3829:D *3712:A1 8.46507e-06
7 *3829:RESET_B *3712:A1 7.6997e-05
8 *16:28 *3725:B1 0.000225307
9 *46:47 *3725:B1 0.000223585
*RES
1 *3829:Q *322:6 11.0679 
2 *322:6 *3712:A1 24.1929 
3 *322:6 *3725:B1 21.1571 
*END

*D_NET *323 0.00184899
*CONN
*I *3713:A0 I *D sky130_fd_sc_hd__mux2_2
*I *3707:A0 I *D sky130_fd_sc_hd__mux2_2
*I *3830:Q O *D sky130_fd_sc_hd__dfrtp_2
*CAP
1 *3713:A0 0
2 *3707:A0 0.000101189
3 *3830:Q 0.000241662
4 *323:14 0.000342851
5 *3702:B *323:14 7.2754e-05
6 *3707:A1 *3707:A0 8.71091e-05
7 *3707:S *3707:A0 0.00026353
8 *3713:S *3707:A0 4.64895e-05
9 *3714:A *323:14 6.98575e-05
10 *3767:A *323:14 0
11 *3887:A *323:14 0.000342943
12 *2:33 *323:14 5.71472e-05
13 *13:42 *3707:A0 0.000223456
*RES
1 *3830:Q *323:14 24.2464 
2 *323:14 *3707:A0 13.1214 
3 *323:14 *3713:A0 9.3 
*END

*D_NET *324 0.000968329
*CONN
*I *3708:A0 I *D sky130_fd_sc_hd__mux2_2
*I *3703:A1 I *D sky130_fd_sc_hd__a211o_2
*I *3831:Q O *D sky130_fd_sc_hd__dfrtp_2
*CAP
1 *3708:A0 5.00582e-05
2 *3703:A1 4.78093e-05
3 *3831:Q 0.000185311
4 *324:10 0.000283179
5 *3703:A2 *3703:A1 6.21768e-05
6 *3703:A2 *3708:A0 9.22948e-05
7 *3703:A2 *324:10 1.02504e-05
8 *3703:B1 *3703:A1 4.28087e-05
9 *3703:B1 *3708:A0 7.83587e-05
10 *3703:B1 *324:10 1.02504e-05
11 *3709:A *324:10 7.39637e-05
12 *3713:S *3708:A0 0
13 *3713:S *324:10 0
14 *14:58 *324:10 0
15 *292:23 *324:10 3.18676e-05
*RES
1 *3831:Q *324:10 16.8893 
2 *324:10 *3703:A1 15.1929 
3 *324:10 *3708:A0 15.1393 
*END

*D_NET *325 0.000977751
*CONN
*I *3696:A I *D sky130_fd_sc_hd__and2_2
*I *3704:A1 I *D sky130_fd_sc_hd__o21a_2
*I *3832:Q O *D sky130_fd_sc_hd__dfrtp_2
*CAP
1 *3696:A 0.000161201
2 *3704:A1 1.04411e-05
3 *3832:Q 0.000236525
4 *325:14 0.000408167
5 *3704:A2 *3704:A1 1.19227e-05
6 *3818:D *3696:A 4.12252e-05
7 *53:12 *3696:A 1.00399e-05
8 *53:12 *325:14 2.15846e-05
9 *228:26 *3696:A 0
10 *228:45 *3704:A1 0
11 *228:45 *325:14 7.6644e-05
*RES
1 *3832:Q *325:14 17.3536 
2 *325:14 *3704:A1 14.0768 
3 *325:14 *3696:A 16.3536 
*END

*D_NET *326 0.00244328
*CONN
*I *3692:A1 I *D sky130_fd_sc_hd__o21a_2
*I *3700:A1 I *D sky130_fd_sc_hd__o22a_2
*I *3833:Q O *D sky130_fd_sc_hd__dfrtp_2
*CAP
1 *3692:A1 0.000473584
2 *3700:A1 0.000147596
3 *3833:Q 9.27009e-05
4 *326:6 0.000713881
5 *3687:A *3692:A1 2.64912e-05
6 *3687:B_N *3692:A1 3.50166e-05
7 *3692:A2 *3692:A1 3.08664e-05
8 *3693:A1 *3692:A1 9.83442e-05
9 *3693:S *3692:A1 7.32756e-05
10 *3769:A *3700:A1 0.000123288
11 *3889:A *3692:A1 4.63699e-05
12 *5:16 *3692:A1 0.000342477
13 *5:16 *326:6 0.00014285
14 *176:12 *3700:A1 3.75448e-05
15 *230:32 *3692:A1 2.55698e-05
16 *230:38 *3700:A1 3.34295e-05
*RES
1 *3833:Q *326:6 10.6571 
2 *326:6 *3700:A1 21.4607 
3 *326:6 *3692:A1 26.4786 
*END

*D_NET *327 0.00111837
*CONN
*I *3684:A I *D sky130_fd_sc_hd__and2_2
*I *3693:A0 I *D sky130_fd_sc_hd__mux2_2
*I *3834:Q O *D sky130_fd_sc_hd__dfrtp_2
*CAP
1 *3684:A 1.40568e-05
2 *3693:A0 0.000268063
3 *3834:Q 5.99138e-05
4 *327:8 0.000342033
5 *3684:B *3684:A 5.52238e-05
6 *3687:A *3693:A0 9.26887e-05
7 *3689:B1 *327:8 7.83659e-05
8 *3694:A *3693:A0 9.90431e-05
9 *3694:A *327:8 0
10 *48:13 *3684:A 2.89016e-05
11 *176:10 *327:8 0
12 *176:12 *3693:A0 0
13 *228:18 *3693:A0 0
14 *293:21 *327:8 8.00806e-05
*RES
1 *3834:Q *327:8 15.4429 
2 *327:8 *3693:A0 18.9429 
3 *327:8 *3684:A 14.3357 
*END

*D_NET *328 0.000883375
*CONN
*I *3681:A1 I *D sky130_fd_sc_hd__o21a_2
*I *3689:A1 I *D sky130_fd_sc_hd__o22a_2
*I *3835:Q O *D sky130_fd_sc_hd__dfrtp_2
*CAP
1 *3681:A1 1.84716e-05
2 *3689:A1 5.64194e-05
3 *3835:Q 0.000107869
4 *328:14 0.00018276
5 *3689:A2 *3681:A1 0
6 *3768:A *328:14 2.44318e-05
7 *230:12 *328:14 0.000102545
8 *230:18 *3681:A1 1.02132e-05
9 *230:18 *3689:A1 7.8195e-05
10 *230:18 *328:14 0.000112269
11 *234:12 *328:14 0.000102545
12 *234:18 *328:14 8.76563e-05
*RES
1 *3835:Q *328:14 21.8357 
2 *328:14 *3689:A1 10.6571 
3 *328:14 *3681:A1 9.72857 
*END

*D_NET *329 0.00354849
*CONN
*I *3752:A1 I *D sky130_fd_sc_hd__mux2_2
*I *3590:A1 I *D sky130_fd_sc_hd__mux2_2
*I *3750:A0 I *D sky130_fd_sc_hd__mux2_2
*I *3819:Q O *D sky130_fd_sc_hd__dfrtp_2
*CAP
1 *3752:A1 0
2 *3590:A1 0.00022399
3 *3750:A0 0.000437711
4 *3819:Q 0.00020891
5 *329:27 0.000302907
6 *329:10 0.000725538
7 *3590:A1 *3592:A1 0.000530565
8 *329:27 *3592:A1 8.46829e-05
9 irq *329:10 7.6644e-05
10 irq *329:27 9.91086e-05
11 *3752:S *3750:A0 2.78584e-05
12 *3820:D *3590:A1 5.49489e-05
13 *3820:D *329:27 9.71197e-05
14 *3823:CLK *3750:A0 0
15 *4:35 *3750:A0 0.000525004
16 *4:39 *329:27 2.84398e-05
17 *294:101 *329:10 0.000125057
*RES
1 *3819:Q *329:10 17.0143 
2 *329:10 *3750:A0 19.9964 
3 *329:10 *329:27 6.78571 
4 *329:27 *3590:A1 14.3536 
5 *329:27 *3752:A1 9.3 
*END

*D_NET *330 0.00372257
*CONN
*I *3748:A0 I *D sky130_fd_sc_hd__mux2_2
*I *3750:A1 I *D sky130_fd_sc_hd__mux2_2
*I *3592:A1 I *D sky130_fd_sc_hd__mux2_2
*I *3820:Q O *D sky130_fd_sc_hd__dfrtp_2
*CAP
1 *3748:A0 0.000202484
2 *3750:A1 6.41338e-05
3 *3592:A1 0.00068029
4 *3820:Q 0
5 *330:10 0.000819143
6 *330:4 0.000277204
7 *3590:A0 *3592:A1 4.42152e-05
8 *3590:A1 *3592:A1 0.000530565
9 *3591:A *3592:A1 0.000180764
10 *3747:A *3748:A0 3.40128e-05
11 *3751:A *3592:A1 0.000217741
12 *3752:S *3592:A1 0.000207836
13 *3752:S *3750:A1 9.75422e-05
14 *3753:A *3592:A1 1.83136e-05
15 *3820:D *3592:A1 1.98839e-05
16 *4:35 *3592:A1 2.44318e-05
17 *34:30 *3748:A0 9.66977e-05
18 *267:47 *3748:A0 8.9157e-05
19 *286:68 *3748:A0 0
20 *286:68 *330:10 3.34672e-05
21 *329:27 *3592:A1 8.46829e-05
*RES
1 *3820:Q *330:4 9.3 
2 *330:4 *330:10 10.3393 
3 *330:10 *3592:A1 24.0857 
4 *330:10 *3750:A1 10.6571 
5 *330:4 *3748:A0 22.4071 
*END

*D_NET *331 0.00386938
*CONN
*I *3746:A0 I *D sky130_fd_sc_hd__mux2_2
*I *3748:A1 I *D sky130_fd_sc_hd__mux2_2
*I *3594:A1 I *D sky130_fd_sc_hd__mux2_2
*I *3821:Q O *D sky130_fd_sc_hd__dfrtp_2
*CAP
1 *3746:A0 0.000152082
2 *3748:A1 0
3 *3594:A1 0.00089603
4 *3821:Q 0.000285542
5 *331:12 0.00133365
6 *3747:A *331:12 0.000290993
7 *3749:A *3594:A1 0.000261554
8 *267:30 *3594:A1 0.000313467
9 *267:30 *3746:A0 4.18895e-05
10 *267:30 *331:12 0
11 *267:37 *3746:A0 5.33005e-05
12 *267:67 *3746:A0 0.000228791
13 *286:68 *331:12 0
14 *294:23 *331:12 1.20741e-05
*RES
1 *3821:Q *331:12 23.425 
2 *331:12 *3594:A1 23.8 
3 *331:12 *3748:A1 9.3 
4 *331:12 *3746:A0 12.3 
*END

*D_NET *332 0.00264458
*CONN
*I *3602:A1 I *D sky130_fd_sc_hd__mux2_2
*I *3744:A0 I *D sky130_fd_sc_hd__mux2_2
*I *3746:A1 I *D sky130_fd_sc_hd__mux2_2
*I *3822:Q O *D sky130_fd_sc_hd__dfrtp_2
*CAP
1 *3602:A1 0.000104656
2 *3744:A0 3.3795e-05
3 *3746:A1 0.000192173
4 *3822:Q 5.08461e-05
5 *332:14 0.0006449
6 *332:8 0.000574433
7 *3824:D *332:14 5.19718e-05
8 *267:67 *3746:A1 3.18676e-05
9 *267:74 *3746:A1 8.07313e-05
10 *267:82 *3744:A0 7.95895e-05
11 *267:82 *3746:A1 1.82549e-05
12 *267:82 *332:14 0.000321683
13 *289:46 *3602:A1 6.98302e-05
14 *289:46 *332:14 0.000389847
*RES
1 *3822:Q *332:8 14.3357 
2 *332:8 *332:14 12.8929 
3 *332:14 *3746:A1 11.8893 
4 *332:14 *3744:A0 10.3357 
5 *332:8 *3602:A1 15.3714 
*END

*D_NET *333 0.00314788
*CONN
*I *3742:A0 I *D sky130_fd_sc_hd__mux2_2
*I *3744:A1 I *D sky130_fd_sc_hd__mux2_2
*I *3600:A1 I *D sky130_fd_sc_hd__mux2_2
*I *3823:Q O *D sky130_fd_sc_hd__dfrtp_2
*CAP
1 *3742:A0 0
2 *3744:A1 7.73642e-05
3 *3600:A1 0.000135869
4 *3823:Q 0.000361011
5 *333:28 0.000607751
6 *333:16 0.00075553
7 *3741:A *333:16 0.000143025
8 *3743:A *333:28 5.45307e-05
9 *3745:A *333:28 0.000191093
10 *3774:A *333:16 2.71515e-05
11 *3774:A *333:28 1.34548e-05
12 *3776:A *333:16 0
13 *3823:D *3600:A1 0
14 *3825:CLK *333:16 0.000150618
15 *4:17 *333:16 2.42054e-05
16 *34:12 *3600:A1 2.8266e-06
17 *165:72 *3600:A1 7.83587e-05
18 *165:72 *3744:A1 0.000105689
19 *267:82 *333:16 5.33005e-05
20 *267:82 *333:28 0.000366103
21 *286:89 *333:16 0
22 *289:46 *333:16 0
*RES
1 *3823:Q *333:16 25.3 
2 *333:16 *333:28 12.1964 
3 *333:28 *3600:A1 16.05 
4 *333:28 *3744:A1 15.1393 
5 *333:16 *3742:A0 9.3 
*END

*D_NET *334 0.0046226
*CONN
*I *3598:A1 I *D sky130_fd_sc_hd__mux2_2
*I *3740:A0 I *D sky130_fd_sc_hd__mux2_2
*I *3742:A1 I *D sky130_fd_sc_hd__mux2_2
*I *3824:Q O *D sky130_fd_sc_hd__dfrtp_2
*CAP
1 *3598:A1 0.000828365
2 *3740:A0 0.00015411
3 *3742:A1 0.000153582
4 *3824:Q 8.61169e-05
5 *334:14 0.000677563
6 *334:8 0.00128435
7 *3598:A0 *3598:A1 0.000118748
8 *3598:S *3598:A1 5.52302e-05
9 *3599:A *3598:A1 2.26132e-05
10 *3740:S *3740:A0 0.000395427
11 *3740:S *3742:A1 0.00018372
12 *3740:S *334:14 4.08637e-05
13 *3776:A *3740:A0 0.000216824
14 *3851:RESET_B *3598:A1 0
15 *3854:D *3598:A1 7.83659e-05
16 *3854:D *334:14 0.00020112
17 *36:16 *3598:A1 0
18 *36:41 *3598:A1 0
19 *165:98 *3598:A1 0
20 *267:82 *3742:A1 5.71472e-05
21 *286:31 *3598:A1 0
22 *286:89 *3740:A0 6.84519e-05
23 *286:89 *334:14 0
*RES
1 *3824:Q *334:8 14.7464 
2 *334:8 *334:14 10.0536 
3 *334:14 *3742:A1 11.4786 
4 *334:14 *3740:A0 24.1214 
5 *334:8 *3598:A1 27.2107 
*END

*D_NET *335 0.00185443
*CONN
*I *3596:A1 I *D sky130_fd_sc_hd__mux2_2
*I *3740:A1 I *D sky130_fd_sc_hd__mux2_2
*I *3825:Q O *D sky130_fd_sc_hd__dfrtp_2
*CAP
1 *3596:A1 0.000218779
2 *3740:A1 0.000473148
3 *3825:Q 0
4 *335:4 0.000691928
5 *3597:A *3596:A1 0.000185541
6 *3740:S *3740:A1 0.000101634
7 *3776:A *3740:A1 5.45307e-05
8 *3825:RESET_B *3740:A1 3.0102e-05
9 *36:16 *3596:A1 9.87617e-05
*RES
1 *3825:Q *335:4 9.3 
2 *335:4 *3740:A1 25.2107 
3 *335:4 *3596:A1 22.7286 
*END

*D_NET *336 0.00190912
*CONN
*I *3669:A1 I *D sky130_fd_sc_hd__mux2_2
*I *3674:A I *D sky130_fd_sc_hd__and2_2
*I *3837:Q O *D sky130_fd_sc_hd__dfrtp_2
*CAP
1 *3669:A1 0.000349368
2 *3674:A 0.000195725
3 *3837:Q 8.73183e-05
4 *336:10 0.000632412
5 *3669:A1 *338:55 2.59355e-05
6 *3674:A *3756:B1 7.80051e-05
7 *3674:A *337:43 1.30747e-05
8 *3674:A *338:76 5.37709e-05
9 *336:10 *337:43 2.34204e-05
10 *336:10 *338:76 6.73939e-05
11 *3669:A0 *3669:A1 0.000149466
12 *3669:A0 *3674:A 0.000145489
13 *3670:A *3674:A 1.8461e-05
14 *3675:A *3674:A 9.25014e-06
15 *3731:A1 *336:10 2.59355e-05
16 *4:130 *3674:A 1.08359e-05
17 *4:169 *3674:A 2.32591e-05
*RES
1 *3837:Q *336:10 15.3714 
2 *336:10 *3674:A 17.5321 
3 *336:10 *3669:A1 18.0321 
*END

*D_NET *337 0.0139552
*CONN
*I *3736:B I *D sky130_fd_sc_hd__nor2_2
*I *3604:A I *D sky130_fd_sc_hd__inv_2
*I *3727:B I *D sky130_fd_sc_hd__or3b_2
*I *3610:A2 I *D sky130_fd_sc_hd__o31a_2
*I *3617:C I *D sky130_fd_sc_hd__or4_2
*I *3757:A1 I *D sky130_fd_sc_hd__mux2_2
*I *3814:Q O *D sky130_fd_sc_hd__dfstp_2
*CAP
1 *3736:B 0.000584302
2 *3604:A 1.32931e-05
3 *3727:B 0
4 *3610:A2 0.000133844
5 *3617:C 5.25233e-05
6 *3757:A1 0.000121693
7 *3814:Q 0.00140603
8 *337:80 0.00111139
9 *337:43 0.00103902
10 *337:27 0.0011455
11 *337:23 0.000960619
12 *337:10 0.00168169
13 *3610:A2 *3610:A3 0.000158508
14 *3617:C *338:76 2.12087e-05
15 *337:10 *3760:B2 5.52238e-05
16 *337:23 *339:30 0
17 *337:27 *338:49 0.000440423
18 *337:43 *338:49 0.000268251
19 *337:43 *338:55 0.000157407
20 *337:43 *338:76 0.000331467
21 pll_bypass *3736:B 6.87242e-05
22 *3610:A1 *3610:A2 6.12987e-05
23 *3610:B1 *3610:A2 2.94744e-05
24 *3617:B *3617:C 2.59355e-05
25 *3617:B *337:43 7.15605e-05
26 *3624:B *3604:A 2.53134e-05
27 *3624:B *337:80 3.57366e-05
28 *3661:A *337:43 0.000145753
29 *3674:A *337:43 1.30747e-05
30 *3732:A2 *3736:B 0.000137873
31 *3732:B1 *3736:B 1.33343e-05
32 *3737:A1 *3736:B 2.82057e-05
33 *3737:A2 *3736:B 0.000105249
34 *3739:B2 *3736:B 2.14658e-05
35 *3757:A0 *3757:A1 0.000184
36 *3757:S *337:23 3.25078e-05
37 *3760:A1 *337:10 0.000110403
38 *3760:B1 *337:10 0.000242713
39 *3789:A *337:43 0.000176234
40 *3814:D *337:10 0.000420853
41 *3827:D *3736:B 7.92879e-05
42 *4:130 *337:43 3.34295e-05
43 *4:169 *337:43 5.46971e-05
44 *31:48 *3736:B 0.000120282
45 *144:34 *337:80 0
46 *174:6 *3736:B 2.84109e-05
47 *174:6 *337:80 3.56849e-05
48 *174:26 *337:80 1.02911e-05
49 *174:44 *3610:A2 2.36643e-05
50 *174:101 *3736:B 0.000141986
51 *174:108 *3736:B 2.12005e-05
52 *183:33 *337:43 0.000183713
53 *183:107 *3757:A1 7.29667e-05
54 *183:107 *337:23 0.000258797
55 *183:107 *337:80 0.000383274
56 *190:14 *337:80 9.10928e-05
57 *270:42 *3736:B 4.53834e-05
58 *286:14 *3757:A1 0.000300703
59 *288:83 *3736:B 6.05161e-06
60 *309:18 *337:43 0.000383697
61 *310:25 *337:23 0
62 *316:16 *337:43 0
63 *316:20 *337:43 0
64 *320:22 *3736:B 2.50463e-05
65 *336:10 *337:43 2.34204e-05
*RES
1 *3814:Q *337:10 31.6036 
2 *337:10 *3757:A1 18.1036 
3 *337:10 *337:23 3.46429 
4 *337:23 *337:27 8.73214 
5 *337:27 *337:43 27.3929 
6 *337:43 *3617:C 10.2464 
7 *337:43 *3610:A2 21.6393 
8 *337:27 *3727:B 9.3 
9 *337:23 *337:80 13.625 
10 *337:80 *3604:A 9.72857 
11 *337:80 *3736:B 32.05 
*END

*D_NET *338 0.0116063
*CONN
*I *3761:A I *D sky130_fd_sc_hd__inv_2
*I *3623:A1 I *D sky130_fd_sc_hd__a31o_2
*I *3727:C_N I *D sky130_fd_sc_hd__or3b_2
*I *3674:B I *D sky130_fd_sc_hd__and2_2
*I *3617:D I *D sky130_fd_sc_hd__or4_2
*I *3610:A3 I *D sky130_fd_sc_hd__o31a_2
*I *3756:B1 I *D sky130_fd_sc_hd__o211a_2
*I *3760:B2 I *D sky130_fd_sc_hd__a22o_2
*I *3815:Q O *D sky130_fd_sc_hd__dfrtp_2
*CAP
1 *3761:A 0
2 *3623:A1 0.000309631
3 *3727:C_N 0
4 *3674:B 0
5 *3617:D 0
6 *3610:A3 0.000119955
7 *3756:B1 0.000216408
8 *3760:B2 0.000259156
9 *3815:Q 0.000315919
10 *338:76 0.000507448
11 *338:57 0.000603902
12 *338:55 0.00020787
13 *338:49 0.00076344
14 *338:41 0.00107633
15 *338:20 0.000780048
16 *338:14 0.000625683
17 *3756:B1 *3756:A1 2.28212e-05
18 pll_trim[0] *338:14 0
19 *3610:A2 *3610:A3 0.000158508
20 *3617:C *338:76 2.12087e-05
21 *3620:C_N *338:14 3.08664e-05
22 *3623:B1 *338:49 0.000300522
23 *3669:A0 *338:55 0.00010872
24 *3669:A1 *338:55 2.59355e-05
25 *3674:A *3756:B1 7.80051e-05
26 *3674:A *338:76 5.37709e-05
27 *3675:A *3756:B1 0.000603716
28 *3727:A *338:49 0.000141729
29 *3729:B *338:14 9.83388e-05
30 *3730:A *3623:A1 1.00332e-05
31 *3730:A *338:41 0.000123359
32 *3756:C1 *3756:B1 9.87617e-05
33 *3760:A1 *3760:B2 4.81894e-05
34 *3760:A2 *338:20 4.08637e-05
35 *3760:A2 *338:41 3.04117e-05
36 *3760:B1 *3760:B2 0
37 *3762:A1 *3623:A1 5.50616e-05
38 *3762:A1 *338:20 1.57523e-05
39 *3762:B2 *338:20 0.000110576
40 *3763:A *3756:B1 0
41 *3789:A *338:76 7.92975e-05
42 *3814:CLK *338:14 0
43 *3814:D *338:41 2.38739e-05
44 *3814:SET_B *338:14 0.000179656
45 *3886:A *3760:B2 4.84678e-05
46 *4:130 *3756:B1 1.46717e-05
47 *4:169 *338:55 7.87525e-05
48 *5:47 *3610:A3 0.000196314
49 *31:48 *338:41 0
50 *144:30 *338:49 0.000168334
51 *147:14 *3756:B1 0.000192765
52 *147:14 *338:76 0.000341968
53 *174:44 *3610:A3 1.21258e-05
54 *186:12 *338:14 0.000195547
55 *186:12 *338:20 5.85866e-05
56 *188:29 *3756:B1 0.000397727
57 *188:44 *3760:B2 5.49544e-05
58 *188:48 *338:41 0
59 *188:52 *338:49 9.69399e-05
60 *188:77 *3760:B2 0.000170733
61 *188:77 *338:20 1.24368e-05
62 *227:43 *3756:B1 0
63 *336:10 *338:76 6.73939e-05
64 *337:10 *3760:B2 5.52238e-05
65 *337:27 *338:49 0.000440423
66 *337:43 *338:49 0.000268251
67 *337:43 *338:55 0.000157407
68 *337:43 *338:76 0.000331467
*RES
1 *3815:Q *338:14 25.4964 
2 *338:14 *338:20 4.67857 
3 *338:20 *3760:B2 22.7821 
4 *338:20 *338:41 7.66071 
5 *338:41 *338:49 17.3929 
6 *338:49 *338:55 5.19643 
7 *338:55 *338:57 4.5 
8 *338:57 *3756:B1 22.2464 
9 *338:57 *338:76 14.3036 
10 *338:76 *3610:A3 21.3893 
11 *338:76 *3617:D 9.3 
12 *338:55 *3674:B 9.3 
13 *338:49 *3727:C_N 9.3 
14 *338:41 *3623:A1 18.175 
15 *338:14 *3761:A 9.3 
*END

*D_NET *339 0.00291377
*CONN
*I *3564:A I *D sky130_fd_sc_hd__buf_1
*I *3568:S I *D sky130_fd_sc_hd__mux2_2
*I *3569:S I *D sky130_fd_sc_hd__mux2_2
*I *3571:S I *D sky130_fd_sc_hd__mux2_2
*I *3816:Q O *D sky130_fd_sc_hd__dfrtp_2
*CAP
1 *3564:A 3.65614e-05
2 *3568:S 0
3 *3569:S 0.00011766
4 *3571:S 0.000211464
5 *3816:Q 0
6 *339:30 0.000128384
7 *339:17 0.000410756
8 *339:4 0.000412738
9 *3568:A0 *3564:A 0.000184745
10 *3569:A0 *3569:S 0.000352414
11 *3569:A0 *339:17 9.69119e-06
12 *3569:A0 *339:30 3.4323e-05
13 *3571:A1 *3571:S 1.02132e-05
14 *3757:S *339:17 0.000123903
15 *3757:S *339:30 4.78056e-05
16 *4:101 *3571:S 0.000145256
17 *188:29 *3564:A 4.43256e-05
18 *188:44 *3564:A 9.90367e-05
19 *286:14 *3569:S 0.00048091
20 *286:14 *339:17 5.16489e-05
21 *310:25 *339:30 1.19402e-05
22 *337:23 *339:30 0
*RES
1 *3816:Q *339:4 9.3 
2 *339:4 *3571:S 12.3179 
3 *339:4 *339:17 9.17857 
4 *339:17 *3569:S 18.4429 
5 *339:17 *339:30 6.44643 
6 *339:30 *3568:S 9.3 
7 *339:30 *3564:A 11.0679 
*END

*D_NET *340 0.00120755
*CONN
*I *3608:A0 I *D sky130_fd_sc_hd__mux2_2
*I *3756:A1 I *D sky130_fd_sc_hd__o211a_2
*I *3850:Q O *D sky130_fd_sc_hd__dfrtp_2
*CAP
1 *3608:A0 0
2 *3756:A1 0.00024988
3 *3850:Q 0.000148177
4 *340:6 0.000398058
5 *3756:A1 *3756:A2 6.72876e-05
6 *3608:S *340:6 0.000281652
7 *3609:A *3756:A1 0
8 *3675:A *3756:A1 2.10192e-05
9 *3756:B1 *3756:A1 2.28212e-05
10 *3763:A *3756:A1 1.86536e-05
*RES
1 *3850:Q *340:6 12.3 
2 *340:6 *3756:A1 22.3134 
3 *340:6 *3608:A0 9.3 
*END

*D_NET *341 0.00765951
*CONN
*I *3580:A I *D sky130_fd_sc_hd__nand2_2
*I *3664:A I *D sky130_fd_sc_hd__and3_2
*I *3575:A I *D sky130_fd_sc_hd__nand2_2
*I *3586:A I *D sky130_fd_sc_hd__and2_2
*I *3756:A2 I *D sky130_fd_sc_hd__o211a_2
*I *3817:Q O *D sky130_fd_sc_hd__dfrtp_2
*CAP
1 *3580:A 5.69492e-05
2 *3664:A 7.18556e-05
3 *3575:A 0
4 *3586:A 0.000346763
5 *3756:A2 0.000319232
6 *3817:Q 0
7 *341:65 0.000128805
8 *341:45 0.000673714
9 *341:39 0.00184745
10 *341:4 0.00183973
11 *3571:A0 *341:39 0.000217677
12 *3574:D *341:39 0.000147718
13 *3576:S *3586:A 2.11419e-05
14 *3580:B *3580:A 5.33005e-05
15 *3580:B *3664:A 0.000224764
16 *3581:S *341:39 0
17 *3609:A *3756:A2 0.000104442
18 *3662:A *341:39 0
19 *3665:S *3580:A 0.000126139
20 *3665:S *3664:A 5.52238e-05
21 *3677:A *341:39 2.85957e-05
22 *3718:A2 *341:39 0
23 *3718:A3 *341:45 2.63442e-05
24 *3720:A1 *3586:A 4.25809e-05
25 *3721:A1 *3580:A 3.05605e-05
26 *3756:A1 *3756:A2 6.72876e-05
27 *3763:A *3756:A2 9.11365e-06
28 *3817:D *3756:A2 2.37761e-05
29 *4:58 *3586:A 0.000279528
30 *5:47 *3756:A2 0
31 *147:46 *341:39 0
32 *148:14 *341:39 5.018e-05
33 *149:14 *341:39 9.31011e-05
34 *150:8 *341:39 0.000128211
35 *150:14 *341:39 5.43654e-05
36 *153:10 *341:39 0
37 *154:12 *341:39 0.000173097
38 *154:12 *341:45 0.000323705
39 *221:6 *3664:A 9.41642e-05
40 *267:30 *341:39 0
41 *267:30 *341:45 0
42 *290:8 *3586:A 0
*RES
1 *3817:Q *341:4 9.3 
2 *341:4 *3756:A2 23.9786 
3 *341:4 *341:39 27.9286 
4 *341:39 *341:45 6.16071 
5 *341:45 *3586:A 21.1036 
6 *341:45 *3575:A 13.8 
7 *341:39 *341:65 4.5 
8 *341:65 *3664:A 11.4786 
9 *341:65 *3580:A 11.0857 
*END

*D_NET *342 0.013689
*CONN
*I *3665:A0 I *D sky130_fd_sc_hd__mux2_2
*I *3718:A1 I *D sky130_fd_sc_hd__a311oi_2
*I *3894:I1 I *D AMUX2_3V
*I *3838:Q O *D sky130_fd_sc_hd__dfrtp_2
*CAP
1 *3665:A0 0.000358477
2 *3718:A1 5.433e-05
3 *3894:I1 0.00327879
4 *3838:Q 0
5 *342:22 0.00346935
6 *342:6 0.000594254
7 *342:4 0.000707842
8 *3665:S *3665:A0 5.33433e-05
9 *3666:A *3665:A0 0
10 *3696:B *3894:I1 0.00016515
11 *3697:B2 *3894:I1 0.000626693
12 *3698:B_N *3894:I1 0.000160383
13 *3699:A3 *3894:I1 0.000310451
14 *3706:C1 *3894:I1 0.000271026
15 *3707:A1 *3894:I1 5.52238e-05
16 *3712:B1 *3894:I1 9.83442e-05
17 *3718:A3 *3718:A1 3.08382e-06
18 *3718:A3 *342:6 1.93007e-05
19 *3718:B1 *3718:A1 3.30409e-06
20 *3718:C1 *3718:A1 0
21 *3720:B1 *342:22 4.21517e-05
22 *3721:A1 *3894:I1 1.74352e-05
23 *3721:A1 *342:6 2.43587e-05
24 *3721:A1 *342:22 2.20422e-05
25 *3721:A2 *3894:I1 2.89016e-05
26 *3721:B1 *3894:I1 0.0001475
27 *3722:A1 *342:22 2.06178e-05
28 *3724:A1 *342:22 9.89651e-05
29 *3754:A *3894:I1 9.69399e-05
30 *3818:SET_B *3894:I1 0.00010288
31 *3838:RESET_B *3665:A0 0
32 *3894:select *3894:I1 0.000401597
33 *13:21 *3894:I1 0.000996417
34 *13:42 *3894:I1 5.47001e-05
35 *34:30 *3894:I1 0.000148114
36 *35:25 *342:22 0.000198113
37 *49:32 *3894:I1 4.1656e-05
38 *49:32 *342:6 2.56014e-05
39 *152:45 *3894:I1 2.5722e-07
40 *154:12 *3665:A0 2.16315e-05
41 *163:12 *342:22 0
42 *163:48 *3894:I1 0.000735548
43 *163:56 *3894:I1 4.48647e-05
44 *228:22 *3894:I1 0
45 *228:26 *3894:I1 0
46 *232:65 *3894:I1 1.56e-05
47 *237:16 *3894:I1 4.27437e-05
48 *237:29 *3894:I1 2.79156e-05
49 *267:30 *342:22 1.90936e-05
50 *290:8 *3665:A0 3.42301e-05
51 *292:76 *3894:I1 4.9743e-05
*RES
1 *3838:Q *342:4 9.3 
2 *342:4 *342:6 4.23214 
3 *342:6 *342:22 18.0309 
4 *342:22 *3894:I1 48.4892 
5 *342:6 *3718:A1 10.3357 
6 *342:4 *3665:A0 23.0679 
*END
